,time,days,metal_creep_strain_rr,metal_creep_strain_tt,metal_creep_strain_zz,oxide_creep_strain_rr,oxide_creep_strain_tt,oxide_creep_strain_zz,oxide_stress_rr,oxide_stress_tt,oxide_stress_zz,years,dt,state,T_gas,T_steam,p_gas,p_steam
4,86400,1.0,-2.1099274480609e-06,2.6036228120358e-06,-4.9369536397487e-07,-7.398627352028201e-10,8.027130686237501e-10,-6.2850333420928e-11,-16.70092121204,18.650357557232,-2.2886469985221,0.0027777777777778,50400.0,1,1100.0,530.0,0.2,17.0
8,172800,2.0,-4.1579396725067e-06,5.1201488489393e-06,-9.6220917643261e-07,-1.3830216074405e-09,1.5312646778384e-09,-1.4824307039792001e-10,-16.698140273793,18.799933725376,-2.2669839335078,0.0055555555555556,50400.0,1,1100.0,530.0,0.2,17.0
12,259200,3.0,-6.1470500184895e-06,7.5590661909345e-06,-1.4120161724449e-06,-2.0333742825165e-09,2.2690684870232e-09,-2.3569420450673003e-10,-16.6985823349,18.930973821161,-2.2531980973059,0.0083333333333333,50400.0,1,1100.0,530.0,0.2,17.0
16,345600,4.0,-8.081510096831e-06,9.9261089698455e-06,-1.8445988730145e-06,-2.6909556404574e-09,3.0161751461238e-09,-3.2521950566644004e-10,-16.695797643857,19.077728041973,-2.2320289125821,0.011111111111111,50400.0,1,1100.0,530.0,0.2,17.0
20,432000,5.0,-9.9646183355024e-06,1.2225785331919e-05,-2.2611669964167e-06,-3.3557055841736e-09,3.7725233479249e-09,-4.168177637513e-10,-16.696291140314,19.206328486018,-2.2186674700896,0.013888888888889,50400.0,1,1100.0,530.0,0.2,17.0
24,518400,6.0,-1.1799768025421e-05,1.4462664568465e-05,-2.6628965430447e-06,-4.0276383848641e-09,4.538139616041e-09,-5.105012311769e-10,-16.695092793104,19.342178360752,-2.2016787433371,0.016666666666667,50400.0,1,1100.0,530.0,0.2,17.0
28,604800,7.0,-1.3589925475901e-05,1.6640747593218e-05,-3.0508221173172e-06,-4.7067473837403e-09,5.3130259033584e-09,-6.062785196181501e-10,-16.694039884568,19.476860957875,-2.1850073249182,0.019444444444444,50400.0,1,1100.0,530.0,0.2,17.0
32,691200,8.0,-1.533779501435e-05,1.876367503124e-05,-3.4258800168908e-06,-5.3930273157354e-09,6.0971858039142e-09,-7.041584881787801e-10,-16.692863032943,19.610595617367,-2.1683747899871,0.022222222222222,50400.0,1,1100.0,530.0,0.2,17.0
36,777600,9.0,-1.7045850403687e-05,2.0834770584704e-05,-3.7889201810171e-06,-6.0864741281788e-09,6.8906245431096e-09,-8.0415041493085e-10,-16.691819353648,19.743055033334,-2.1521397493256,0.025,50400.0,1,1100.0,530.0,0.2,17.0
40,864000,10.0,-1.871636904695e-05,2.2857087084968e-05,-4.1407180380179e-06,-6.7870871548025e-09,7.6933512640901e-09,-9.0626410928756e-10,-16.69073839322,19.874899561715,-2.1359035335036,0.027777777777778,50400.0,1,1100.0,530.0,0.2,17.0
44,950400,11.0,-2.0351436335638e-05,2.4833416006757e-05,-4.4819796711194e-06,-7.4948652152296e-09,8.5053746603511e-09,-1.0105094451215e-09,-16.689640354716,20.005581601994,-2.1199130389069,0.030555555555556,50400.0,1,1100.0,530.0,0.2,17.0
48,1036800,12.0,-2.1952981260331e-05,2.6766333631571e-05,-4.8133523712396e-06,-8.2098100432523e-09,9.3267068661651e-09,-1.1168968229128e-09,-16.688543533447,20.135553753894,-2.1040085058412,0.033333333333333,50400.0,1,1100.0,530.0,0.2,17.0
52,1123200,13.0,-2.3522780278182e-05,2.8658209135194e-05,-5.1354288570117e-06,-8.9319236081246e-09,1.0157360400943e-08,-1.2254367928185e-09,-16.687442787516,20.264541365421,-2.0883101891636,0.036111111111111,50400.0,1,1100.0,530.0,0.2,17.0
56,1209600,14.0,-2.5062474323493e-05,3.0511227683283e-05,-5.4487533597901e-06,-9.6612083240815e-09,1.0997348391548e-08,-1.3361400674666e-09,-16.686293345822,20.392417666673,-2.0728469024465,0.038888888888889,50400.0,1,1100.0,530.0,0.2,17.0
60,1296000,15.0,-2.6573606074818e-05,3.2327436671765e-05,-5.753830596947e-06,-1.0397672708823e-08,1.1846691134551e-08,-1.4490184257282e-09,-16.685312517238,20.520274575958,-2.05735531406,0.041666666666667,50400.0,1,1100.0,530.0,0.2,17.0
64,1382400,16.0,-2.8057581434079e-05,3.410870308795e-05,-6.0511216538715e-06,-1.1141320153695e-08,1.2705403022768e-08,-1.5640828690727e-09,-16.684187859011,20.646823944907,-2.0421136378998,0.044444444444444,50400.0,1,1100.0,530.0,0.2,17.0
68,1468800,17.0,-2.9515836700641e-05,3.5856914314334e-05,-6.3410776136932e-06,-1.1892185660843e-08,1.3573536171986e-08,-1.6813505111433e-09,-16.681484270493,20.781263726739,-2.0231911284082,0.047222222222222,50400.0,1,1100.0,530.0,0.2,17.0
72,1555200,18.0,-3.0949377176155e-05,3.7573427519442e-05,-6.6240503432871e-06,-1.2650224573566e-08,1.4451047607791e-08,-1.8008230342251e-09,-16.682086241353,20.898250688684,-2.0119778884383,0.05,50400.0,1,1100.0,530.0,0.2,17.0
76,1641600,19.0,-3.2359465795667e-05,3.9259896906432e-05,-6.9004311107651e-06,-1.3415473136043e-08,1.5337990941306e-08,-1.9225178052631e-09,-16.681040898898,21.023235816466,-1.9969940773061,0.052777777777778,50400.0,1,1100.0,530.0,0.2,17.0
80,1728000,20.0,-3.374716546931e-05,4.0917724961659e-05,-7.1705594923492e-06,-1.4187938489254e-08,1.6234385233023e-08,-2.0464467437684e-09,-16.679950718481,21.146893952387,-1.9823673640466,0.055555555555556,50400.0,1,1100.0,530.0,0.2,17.0
84,1814400,21.0,-3.5113494100535e-05,4.2548249845159e-05,-7.4347557446242e-06,-1.4967634940999e-08,1.7140257966527e-08,-2.1726230255278e-09,-16.678981952313,21.270672381587,-1.9676679548088,0.058333333333333,50400.0,1,1100.0,530.0,0.2,17.0
88,1900800,22.0,-3.6459383416448e-05,4.415269804886e-05,-7.6933146324119e-06,-1.5754571758397e-08,1.8055630764914e-08,-2.3010590065174e-09,-16.677892799508,21.393398236337,-1.9531727387363,0.061111111111111,50400.0,1,1100.0,530.0,0.2,17.0
92,1987200,23.0,-3.7785726301987e-05,4.5732240390806e-05,-7.9465140888191e-06,-1.6548763822669e-08,1.8980531908395e-08,-2.4317680857258e-09,-16.67691907258,21.516023973849,-1.938690904379,0.063888888888889,50400.0,1,1100.0,530.0,0.2,17.0
96,2073600,24.0,-3.9093347625802e-05,4.7287959314783e-05,-8.1946116889812e-06,-1.7350222920194e-08,1.9914986121188e-08,-2.5647632009939e-09,-16.675892306771,21.637818228871,-1.9243985831128,0.066666666666667,50400.0,1,1100.0,530.0,0.2,17.0
100,2160000,25.0,-4.0383031696154e-05,4.882088138893e-05,-8.4378496927754e-06,-1.8158963791721e-08,2.0859021609655e-08,-2.7000578179341e-09,-16.674910120799,21.759257894233,-1.9101716409005,0.069444444444444,50400.0,1,1100.0,530.0,0.2,17.0
104,2246400,26.0,-4.1655509646763e-05,5.0331963543726e-05,-8.6764538969633e-06,-1.897499980595e-08,2.1812665016848e-08,-2.8376652108985e-09,-16.673860492012,21.879970835634,-1.8960747971166,0.072222222222222,50400.0,1,1100.0,530.0,0.2,17.0
108,2332800,27.0,-4.2911479769192e-05,5.1822117083055e-05,-8.9106373138629e-06,-1.9800520717477e-08,2.2780994000788e-08,-2.9804732833111e-09,-16.672841025173,22.000408677825,-1.8820235212422,0.075,50400.0,1,1100.0,530.0,0.2,17.0
112,2419200,28.0,-4.4151595484893e-05,5.3292194871675e-05,-9.140599386782e-06,-2.0635586499835e-08,2.3764111966356e-08,-3.1285254665214e-09,-16.671871686026,22.120228998085,-1.8681599485044,0.077777777777778,50400.0,1,1100.0,530.0,0.2,17.0
116,2505600,29.0,-4.5376474162758e-05,5.4743001416227e-05,-9.3665272534697e-06,-2.147810589782e-08,2.475715609805e-08,-3.27905020023e-09,-16.670837563244,22.239544474671,-1.8543488147005,0.080555555555556,50400.0,1,1100.0,530.0,0.2,17.0
120,2592000,30.0,-4.6586797334992e-05,5.6175412578168e-05,-9.5886152431763e-06,-2.2328126036547e-08,2.5760194816877e-08,-3.4320687803305e-09,-16.668150276808,22.366779354224,-1.8368503595687,0.083333333333333,50400.0,1,1100.0,530.0,0.2,17.0
124,2678400,31.0,-4.77829284069e-05,5.7589922717302e-05,-9.8069943104023e-06,-2.318560927669e-08,2.6773194275002e-08,-3.5875849983123e-09,-16.668767070071,22.476981628604,-1.8269592970539,0.086111111111111,50400.0,1,1100.0,530.0,0.2,17.0
128,2764800,32.0,-4.8965490922346e-05,5.8987330581845e-05,-1.0021839659498e-05,-2.4050603753073e-08,2.7796224133402e-08,-3.7456203803295e-09,-16.667819172223,22.595193844093,-1.8134111729672,0.088888888888889,50400.0,1,1100.0,530.0,0.2,17.0
132,2851200,33.0,-5.013507679954e-05,6.0368393144909e-05,-1.0233316345369e-05,-2.4923158613425e-08,2.8829355449025e-08,-3.9061968355996e-09,-16.66519150151,22.721352582468,-1.7961526316934,0.091666666666667,50400.0,1,1100.0,530.0,0.2,17.0
136,2937600,34.0,-5.1291967354232e-05,6.1733496703084e-05,-1.0441529348852e-05,-2.5803234897122e-08,2.9872552770211e-08,-4.0693178730896e-09,-16.665827815046,22.830124882619,-1.786605752477,0.094444444444444,50400.0,1,1100.0,530.0,0.2,17.0
140,3024000,35.0,-5.2436710764565e-05,6.3083339889381e-05,-1.0646629124816e-05,-2.6690883630662e-08,3.092588939544e-08,-4.2350057647778e-09,-16.664841570287,22.947243714183,-1.7732422830799,0.097222222222222,50400.0,1,1100.0,530.0,0.2,17.0
144,3110400,36.0,-5.3569734084476e-05,6.4418475035937e-05,-1.0848740951461e-05,-2.7586125881766e-08,3.1989402558976e-08,-4.4032766772097e-09,-16.663892711534,23.063864882095,-1.7600411765392,0.1,50400.0,1,1100.0,530.0,0.2,17.0
148,3196800,37.0,-5.4691443330155e-05,6.5739426646111e-05,-1.1047983315956e-05,-2.8488983102898e-08,3.3063129887844e-08,-4.5741467849465e-09,-16.66288221594,23.180155805635,-1.7468416171521,0.10277777777778,50400.0,1,1100.0,530.0,0.2,17.0
152,3283200,38.0,-5.5802230724791e-05,6.7046700355264e-05,-1.1244469630473e-05,-2.9399478976509e-08,3.4147111820346e-08,-4.7476328438373e-09,-16.661956126822,23.296347908476,-1.7336994917967,0.10555555555556,50400.0,1,1100.0,530.0,0.2,17.0
156,3369600,39.0,-5.6902458853315e-05,6.8340764513335e-05,-1.1438305660019e-05,-3.0317633872436e-08,3.5241384830708e-08,-4.9237509582718e-09,-16.660957314718,23.41182028317,-1.7207159543908,0.10833333333333,50400.0,1,1100.0,530.0,0.2,17.0
160,3456000,40.0,-5.7992486797616e-05,6.962208079218e-05,-1.1629593994564e-05,-3.1243473091429e-08,3.6345991336992e-08,-5.1025182455629e-09,-16.660076350957,23.527375913187,-1.7077335298244,0.11111111111111,50400.0,1,1100.0,530.0,0.2,17.0
164,3542400,41.0,-5.907264544635e-05,7.0891075632125e-05,-1.1818430185774e-05,-3.217701808125e-08,3.7460969179432e-08,-5.2839510981826e-09,-16.659091283985,23.642321317317,-1.6948513125156,0.11388888888889,50400.0,1,1100.0,530.0,0.2,17.0
168,3628800,42.0,-6.0143254573053e-05,7.2148160363159e-05,-1.2004905790106e-05,-3.3118292116783e-08,3.8586358421766e-08,-5.4680663049832e-09,-16.658050333112,23.756949458849,-1.6819991417809,0.11666666666667,50400.0,1,1100.0,530.0,0.2,17.0
172,3715200,43.0,-6.1204620309358e-05,7.3393728352715e-05,-1.2189108043357e-05,-3.4067318904186e-08,3.9722199725797e-08,-5.6548808216103e-09,-16.6571058224,23.871143553985,-1.6693343860306,0.11944444444444,50400.0,1,1100.0,530.0,0.2,17.0
176,3801600,44.0,-6.2257038396423e-05,7.4628158885757e-05,-1.2371120489334e-05,-3.5024123606048e-08,4.0868535506815e-08,-5.8444119007668e-09,-16.656169336052,23.985232328849,-1.6566713472812,0.12222222222222,50400.0,1,1100.0,530.0,0.2,17.0
180,3888000,45.0,-6.3300790819683e-05,7.5851813355166e-05,-1.2551022535483e-05,-3.598873134543e-08,4.2025408131077e-08,-6.0366767856462e-09,-16.655202106825,24.099166192069,-1.6439851362142,0.125,50400.0,1,1100.0,530.0,0.2,17.0
184,3974400,46.0,-6.433614396464e-05,7.7065033423252e-05,-1.2728889458612e-05,-3.6961166295228e-08,4.3192858937996e-08,-6.2316926427679e-09,-16.654227528411,24.212698545871,-1.6314120912304,0.12777777777778,50400.0,1,1100.0,530.0,0.2,17.0
188,4060800,47.0,-6.5363353698875e-05,7.8268146836962e-05,-1.2904793138087e-05,-3.794145311787e-08,4.4370929851437e-08,-6.4294767335669e-09,-16.653220669427,24.325880963132,-1.6189028341973,0.13055555555556,50400.0,1,1100.0,530.0,0.2,17.0
192,4147200,48.0,-6.6382755750302e-05,7.9461573601541e-05,-1.3078817851238e-05,-3.892965124664e-08,4.5559705308467e-08,-6.6300540618264e-09,-16.650676622255,24.447485443976,-1.6026381640123,0.13333333333333,50400.0,1,1100.0,530.0,0.2,17.0
196,4233600,49.0,-6.7394497669678e-05,8.0645511750355e-05,-1.3251014080677e-05,-3.9925754051302e-08,4.6759189122599e-08,-6.8334350712973e-09,-16.649730219186,24.560235630395,-1.5902509408661,0.13611111111111,50400.0,1,1100.0,530.0,0.2,17.0
200,4320000,50.0,-6.839872532856e-05,8.1820155490076e-05,-1.3421430161516e-05,-4.0929755836786e-08,4.7969386134032e-08,-7.0396302972467e-09,-16.65047802278,24.66448265212,-1.581688435933,0.13888888888889,50400.0,1,1100.0,530.0,0.2,17.0
204,4406400,51.0,-6.9395736896378e-05,8.2985877561849e-05,-1.3590140665471e-05,-4.1941713252204e-08,4.9190377476799e-08,-7.248664224595e-09,-16.649472279695,24.776706653256,-1.5693725639547,0.14166666666667,50400.0,1,1100.0,530.0,0.2,17.0
208,4492800,52.0,-7.0385740526548e-05,8.4142943574159e-05,-1.375720304761e-05,-4.2961652276874e-08,5.0422206935149e-08,-7.4605546582754e-09,-16.648514633685,24.888515608768,-1.5572304425413,0.14444444444444,50400.0,1,1100.0,530.0,0.2,17.0
212,4579200,53.0,-7.1369026278763e-05,8.5291713834326e-05,-1.3922687555563e-05,-4.3989635628453e-08,5.1664963165471e-08,-7.6753275370181e-09,-16.645942677398,25.009062854273,-1.5411483815327,0.14722222222222,50400.0,1,1100.0,530.0,0.2,17.0
216,4665600,54.0,-7.2345618842573e-05,8.6432236903623e-05,-1.4086618061051e-05,-4.5025623512345e-08,5.2918609380789e-08,-7.8929858684439e-09,-16.646698403078,25.112219738626,-1.5328593629568,0.15,50400.0,1,1100.0,530.0,0.2,17.0
220,4752000,55.0,-7.3315787977644e-05,8.7564847744534e-05,-1.424905976689e-05,-4.6069676401321e-08,5.4183231598915e-08,-8.1135551975939e-09,-16.645773516045,25.223795503076,-1.5207222559769,0.15277777777778,50400.0,1,1100.0,530.0,0.2,17.0
224,4838400,56.0,-7.4279705839518e-05,8.8689765971104e-05,-1.4410060131586e-05,-4.712181897266e-08,5.5458872097511e-08,-8.337053124851e-09,-16.64480701088,25.334583198503,-1.5088054604427,0.15555555555556,50400.0,1,1100.0,530.0,0.2,17.0
228,4924800,57.0,-7.523755154435e-05,8.9807218392214e-05,-1.4569666847864e-05,-4.8182082045403e-08,5.6745580591713e-08,-8.5634985463094e-09,-16.643909887963,25.44573772908,-1.4967727606488,0.15833333333333,50400.0,1,1100.0,530.0,0.2,17.0
232,5011200,58.0,-7.6189487246686e-05,9.0917411656218e-05,-1.4727924409532e-05,-4.9250492419958e-08,5.804340197615e-08,-8.7929095561921e-09,-16.64297058012,25.556479506272,-1.4848249590565,0.16111111111111,50400.0,1,1100.0,530.0,0.2,17.0
236,5097600,59.0,-7.7135672439363e-05,9.2020547560687e-05,-1.4884875121324e-05,-5.0327077757264e-08,5.9352382270664e-08,-9.0253045134e-09,-16.642039059329,25.666934569168,-1.4729731432216,0.16388888888889,50400.0,1,1100.0,530.0,0.2,17.0
240,5184000,60.0,-7.8076261296735e-05,9.3116821767233e-05,-1.5040560470498e-05,-5.1411866869567e-08,6.0672568853879e-08,-9.2607019843123e-09,-16.641095781748,25.777271924189,-1.4611150193502,0.16666666666667,50400.0,1,1100.0,530.0,0.2,17.0
244,5270400,61.0,-7.901148269111e-05,9.4206516497872e-05,-1.5195033806762e-05,-5.2504923602297e-08,6.2004052350229e-08,-9.4991287479323e-09,-16.638462839364,25.896066916269,-1.4454055017286,0.16944444444444,50400.0,1,1100.0,530.0,0.2,17.0
248,5356800,62.0,-7.9941318822642e-05,9.5289625135204e-05,-1.5348306312562e-05,-5.3606207734972e-08,6.3346795235684e-08,-9.7405875007118e-09,-16.639270304282,25.997490860543,-1.4375413751522,0.17222222222222,50400.0,1,1100.0,530.0,0.2,17.0
252,5443200,63.0,-8.0865985366102e-05,9.6366412606513e-05,-1.5500427240411e-05,-5.4715780916116e-08,6.4700885444827e-08,-9.9851045287113e-09,-16.638244873866,26.107200131334,-1.4257864698389,0.175,50400.0,1,1100.0,530.0,0.2,17.0
256,5529600,64.0,-8.178561679994e-05,9.7437049220324e-05,-1.5651432420383e-05,-5.5833673081524e-08,6.6066371876652e-08,-1.0232698795128e-08,-16.637337544461,26.216706668242,-1.4141443545122,0.17777777777778,50400.0,1,1100.0,530.0,0.2,17.0
260,5616000,65.0,-8.2700341623975e-05,9.8501697394257e-05,-1.5801355770282e-05,-5.6959913597858e-08,6.7443302813181e-08,-1.0483389215323e-08,-16.636401043487,26.326081279715,-1.4025176328783,0.18055555555556,50400.0,1,1100.0,530.0,0.2,17.0
264,5702400,66.0,-8.3610289779526e-05,9.956052067925e-05,-1.5950230899724e-05,-5.8094534755558e-08,6.8831730069309e-08,-1.073719531375e-08,-16.635511994931,26.43577233362,-1.3907769452686,0.18333333333333,50400.0,1,1100.0,530.0,0.2,17.0
268,5788800,67.0,-8.4515575569893e-05,0.0001006136644393,-1.6098088869453e-05,-5.9237563956008e-08,7.0231699641074e-08,-1.0994135685066e-08,-16.634650098932,26.544811678066,-1.3792832358384,0.18611111111111,50400.0,1,1100.0,530.0,0.2,17.0
272,5875200,68.0,-8.5416313717299e-05,0.0001016612727286,-1.6244959011296e-05,-6.038902995571e-08,7.1643259098454e-08,-1.1254229142744e-08,-16.633689191902,26.653600170742,-1.3677800432317,0.18888888888889,50400.0,1,1100.0,530.0,0.2,17.0
276,5961600,69.0,-8.6312615728388e-05,0.0001027034866686,-1.6390870940261e-05,-6.1548962827669e-08,7.306645770893e-08,-1.1517494881261e-08,-16.632751426833,26.762195444896,-1.3563448286075,0.19166666666667,50400.0,1,1100.0,530.0,0.2,17.0
280,6048000,70.0,-8.7204595234948e-05,0.0001037404488931,-1.6535853658246e-05,-6.2717395335967e-08,7.4501348011395e-08,-1.1783952675428e-08,-16.631905061854,26.871030542933,-1.3448567692228,0.19444444444444,50400.0,1,1100.0,530.0,0.2,17.0
284,6134400,71.0,-8.8092353902748e-05,0.0001047722878457,-1.6679933942967e-05,-6.3894356378833e-08,7.5947977932425e-08,-1.2053621553592e-08,-16.631025841092,26.979465517805,-1.3334831764295,0.19722222222222,50400.0,1,1100.0,530.0,0.2,17.0
288,6220800,72.0,-8.8975991771875e-05,0.0001057991296199,-1.6823137848113e-05,-6.5079875946053e-08,7.7406396680534e-08,-1.2326520734481e-08,-16.630106865217,27.087695007375,-1.3221250103714,0.2,50400.0,1,1100.0,530.0,0.2,17.0
292,6307200,73.0,-8.9855605768631e-05,0.0001068210963178,-1.6965490549208e-05,-6.6273984082936e-08,7.887665359659e-08,-1.2602669513654e-08,-16.629141207008,27.195709978643,-1.310793538282,0.20277777777778,50400.0,1,1100.0,530.0,0.2,17.0
296,6393600,74.0,-9.0731293779927e-05,0.00010783831071,-1.7107016930142e-05,-6.7476713021095e-08,8.0358800709519e-08,-1.2882087688424e-08,-16.628262392707,27.303754455316,-1.2994834276492,0.20555555555556,50400.0,1,1100.0,530.0,0.2,17.0
300,6480000,75.0,-9.1603149196626e-05,0.0001088508900482,-1.7247740851633e-05,-6.8688094443999e-08,8.1852889428517e-08,-1.3164794984518e-08,-16.627371971409,27.411793476529,-1.2881493308333,0.20833333333333,50400.0,1,1100.0,530.0,0.2,17.0
304,6566400,76.0,-9.2471258927019e-05,0.0001098589437721,-1.738768484511e-05,-6.9908158444044e-08,8.3358969270979e-08,-1.3450810826935e-08,-16.626476919616,27.519512317935,-1.2769131093749,0.21111111111111,50400.0,1,1100.0,530.0,0.2,17.0
308,6652800,77.0,-9.3335708809056e-05,0.0001108625796271,-1.7526870818098e-05,-7.1136935981959e-08,8.4877090754728e-08,-1.3740154772769e-08,-16.625572883849,27.627051936883,-1.2656957590739,0.21388888888889,50400.0,1,1100.0,530.0,0.2,17.0
312,6739200,78.0,-9.4196578829279e-05,0.0001118618985092,-1.7665319679997e-05,-7.2374456610339e-08,8.6407302876137e-08,-1.4032846265798e-08,-16.624604111762,27.734193084948,-1.2545926880146,0.21666666666667,50400.0,1,1100.0,530.0,0.2,17.0
316,6825600,79.0,-9.5053957070273e-05,0.0001128570101267,-1.7803053056461e-05,-7.3620755325865e-08,8.7949661180875e-08,-1.432890585501e-08,-16.623784758188,27.841675841328,-1.2434338780435,0.21944444444444,50400.0,1,1100.0,530.0,0.2,17.0
320,6912000,80.0,-9.5907989926078e-05,0.0001138480920676,-1.794010214152e-05,-7.4875898690368e-08,8.9504260709368e-08,-1.4628362019e-08,-16.621186158913,27.957081192623,-1.2285440093412,0.22222222222222,50400.0,1,1100.0,530.0,0.2,17.0
324,6998400,81.0,-9.6758607874242e-05,0.0001148350699702,-1.8076462096036e-05,-7.6139844392282e-08,9.1071060943153e-08,-1.4931216550872e-08,-16.621891256721,28.055625837989,-1.2212507005992,0.225,50400.0,1,1100.0,530.0,0.2,17.0
328,7084800,82.0,-9.760595938382e-05,0.000115818123385,-1.8212164001223e-05,-7.7412661866589e-08,9.2650160456565e-08,-1.5237498589976e-08,-16.62100391756,28.162525142361,-1.2102012555014,0.22777777777778,50400.0,1,1100.0,530.0,0.2,17.0
332,7171200,83.0,-9.8450118325166e-05,0.0001167973445366,-1.8347226211486e-05,-7.8694384138734e-08,9.4241612565944e-08,-1.554722842721e-08,-16.620164787703,28.269396566518,-1.1991769489637,0.23055555555556,50400.0,1,1100.0,530.0,0.2,17.0
336,7257600,84.0,-9.9291149626763e-05,0.0001177728151408,-1.8481665514048e-05,-7.9985040890967e-08,9.5845466456384e-08,-1.5860425565417e-08,-16.619168050293,28.375863985337,-1.1881628948195,0.23333333333333,50400.0,1,1100.0,530.0,0.2,17.0
340,7344000,85.0,-0.0001001291288882,0.0001187446289319,-1.8615500043681e-05,-8.1284668610624e-08,9.7461779784721e-08,-1.6177111174097e-08,-16.618338181795,28.482797249546,-1.1770900467005,0.23611111111111,50400.0,1,1100.0,530.0,0.2,17.0
344,7430400,86.0,-0.000100964185481,0.0001197129422783,-1.8748756797322e-05,-8.2593333833358e-08,9.9090647940568e-08,-1.649731410721e-08,-16.615808790765,28.597266965495,-1.162487128843,0.23888888888889,50400.0,1,1100.0,530.0,0.2,17.0
348,7516800,87.0,-0.0001017963137971,0.0001206777539121,-1.8881440115005e-05,-8.3911032992911e-08,1.0073207865369e-07,-1.6821045660774e-08,-16.614911098049,28.703528473959,-1.1515751427731,0.24166666666667,50400.0,1,1100.0,530.0,0.2,17.0
352,7603200,88.0,-0.0001026255004367,0.0001216390540428,-1.9013553606101e-05,-8.5237758129768e-08,1.0238607412518e-07,-1.7148315995408e-08,-16.615602996991,28.801077543504,-1.1445020947195,0.24444444444444,50400.0,1,1100.0,530.0,0.2,17.0
356,7689600,89.0,-0.0001034518872727,0.0001225970118925,-1.914512461979e-05,-8.6573584583934e-08,1.040527406191e-07,-1.7479156035169e-08,-16.614823262959,28.907541002851,-1.133562115544,0.24722222222222,50400.0,1,1100.0,530.0,0.2,17.0
360,7776000,90.0,-0.000104275523737,0.0001235516905039,-1.9276166766861e-05,-8.7918540534657e-08,1.0573212572383e-07,-1.7813585189169e-08,-16.613900510462,29.013186910148,-1.1228094677831,0.25,50400.0,1,1100.0,530.0,0.2,17.0
364,7862400,91.0,-0.0001050964703856,0.0001245031650388,-1.9406694653155e-05,-8.9272661009555e-08,1.0742428544573e-07,-1.8151624436175e-08,-16.613008930266,29.119035692867,-1.1119887592585,0.25277777777778,50400.0,1,1100.0,530.0,0.2,17.0
368,7948800,92.0,-0.0001059147844564,0.0001254515066174,-1.9536722160921e-05,-9.0635980164834e-08,1.0912927474172e-07,-1.8493294576889e-08,-16.612199355455,29.224880960315,-1.1012032132088,0.25555555555556,50400.0,1,1100.0,530.0,0.2,17.0
372,8035200,93.0,-0.0001067305849246,0.0001263968580894,-1.966627316483e-05,-9.200856809614e-08,1.1084719368844e-07,-1.8838625592296e-08,-16.609553334549,29.338708288106,-1.0866184559204,0.25833333333333,50400.0,1,1100.0,530.0,0.2,17.0
376,8121600,94.0,-0.0001075437888064,0.0001273391270739,-1.9795338267495e-05,-9.3390382480081e-08,1.1257800149272e-07,-1.9187619012644e-08,-16.61034528464,29.436062900995,-1.0796021992432,0.26111111111111,50400.0,1,1100.0,530.0,0.2,17.0
380,8208000,95.0,-0.0001083545107459,0.0001282784517506,-1.9923941004715e-05,-9.4781492379069e-08,1.1432179696881e-07,-1.9540304589743e-08,-16.609443743981,29.541208512591,-1.0689562533689,0.26388888888889,50400.0,1,1100.0,530.0,0.2,17.0
384,8294400,96.0,-0.0001091628039538,0.0001292148969666,-2.0052093012837e-05,-9.6181932444617e-08,1.1607863583132e-07,-1.9896703386701e-08,-16.608590749137,29.646382684661,-1.0583201765712,0.26666666666667,50400.0,1,1100.0,530.0,0.2,17.0
388,8380800,97.0,-0.000109968786047,0.0001301486039694,-2.0179817922464e-05,-9.7591777115044e-08,1.1784862380702e-07,-2.0256846691974e-08,-16.60603445344,29.759957870655,-1.0438418956153,0.26944444444444,50400.0,1,1100.0,530.0,0.2,17.0
392,8467200,98.0,-0.0001107724326907,0.0001310795479655,-2.0307115274747e-05,-9.9011019768104e-08,1.196317649048e-07,-2.0620745136697e-08,-16.605146488048,29.864891673649,-1.0332381773728,0.27222222222222,50400.0,1,1100.0,530.0,0.2,17.0
396,8553600,99.0,-0.0001115737883825,0.0001320077848444,-2.0433996461854e-05,-1.0043969408163e-07,1.2142811366369e-07,-2.098841958206e-08,-16.604246582145,29.969749816657,-1.0226317215528,0.275,50400.0,1,1100.0,530.0,0.2,17.0
400,8640000,100.0,-0.0001123728301567,0.0001329332904701,-2.0560460313464e-05,-1.0187779317477e-07,1.2323767368817e-07,-2.13598805134e-08,-16.605017356549,30.066162959479,-1.0158459904629,0.27777777777778,50400.0,1,1100.0,530.0,0.2,17.0
404,8726400,101.0,-0.0001131696730748,0.0001338562025226,-2.0686529447753e-05,-1.0332539285286e-07,1.2506055247136e-07,-2.1735159618493e-08,-16.604182635329,30.171092383575,-1.0052284806004,0.28055555555556,50400.0,1,1100.0,530.0,0.2,17.0
408,8812800,102.0,-0.0001139643575021,0.0001347765712769,-2.0812213774877e-05,-1.0478252607249e-07,1.268968038197e-07,-2.2114277747212e-08,-16.603267640448,30.275783910265,-0.99463362276015,0.28333333333333,50400.0,1,1100.0,530.0,0.2,17.0
412,8899200,103.0,-0.0001147569925403,0.0001356945267073,-2.0937534166996e-05,-1.0624926795382e-07,1.2874653468224e-07,-2.2497266728423e-08,-16.600762068841,30.388641999186,-0.98036710751553,0.28611111111111,50400.0,1,1100.0,530.0,0.2,17.0
416,8985600,104.0,-0.0001155474783796,0.0001366099557606,-2.1062477381014e-05,-1.0772556933971e-07,1.3060969541438e-07,-2.2884126074666e-08,-16.601467204846,30.484531401358,-0.97365839590662,0.28888888888889,50400.0,1,1100.0,530.0,0.2,17.0
420,9072000,105.0,-0.0001163359951683,0.0001375230709363,-2.118707576797e-05,-1.0921154961717e-07,1.3248644871747e-07,-2.3274899100295e-08,-16.599001284619,30.597396029233,-0.95938149928267,0.29166666666667,50400.0,1,1100.0,530.0,0.2,17.0
424,9158400,106.0,-0.0001171224413491,0.0001384337569007,-2.1311315551575e-05,-1.1070715865013e-07,1.343767437049e-07,-2.3669585054764e-08,-16.599739662178,30.693211086951,-0.95269301589822,0.29444444444444,50400.0,1,1100.0,530.0,0.2,17.0
428,9244800,107.0,-0.0001179069916028,0.0001393422196443,-2.1435228041488e-05,-1.1221251499107e-07,1.3628074219298e-07,-2.4068227201916e-08,-16.597203613191,30.805813041524,-0.93842900388846,0.29722222222222,50400.0,1,1100.0,530.0,0.2,17.0
432,9331200,108.0,-0.0001186895475847,0.0001402483473807,-2.1558799795926e-05,-1.1372757073754e-07,1.3819839607104e-07,-2.4470825333501e-08,-16.598069170778,30.901625922824,-0.93180831152406,0.3,50400.0,1,1100.0,530.0,0.2,17.0
436,9417600,109.0,-0.0001194702100304,0.0001411522600286,-2.1682049998168e-05,-1.152524005556e-07,1.4012981187771e-07,-2.4877411322118e-08,-16.597167766826,31.00563289391,-0.9213741813908,0.30277777777778,50400.0,1,1100.0,530.0,0.2,17.0
440,9504000,110.0,-0.0001202490121844,0.0001420539985736,-2.1804986389161e-05,-1.1678703836254e-07,1.4207504477444e-07,-2.5288006411897e-08,-16.59628472233,31.109380562026,-0.91102238788026,0.30555555555556,50400.0,1,1100.0,530.0,0.2,17.0
444,9590400,111.0,-0.000121025988998,0.0001429536061466,-2.1927617148576e-05,-1.1833152002628e-07,1.4403415242152e-07,-2.570263239524e-08,-16.595403584766,31.213207473587,-0.9006389209379,0.30833333333333,50400.0,1,1100.0,530.0,0.2,17.0
448,9676800,112.0,-0.0001218011736026,0.0001438511235986,-2.2049949996039e-05,-1.1988588081219e-07,1.4600719173687e-07,-2.6121310924676e-08,-16.594573204676,31.316947302452,-0.89030731526218,0.31111111111111,50400.0,1,1100.0,530.0,0.2,17.0
452,9763200,113.0,-0.0001225745984893,0.0001447465910393,-2.2171992550055e-05,-1.2145015627472e-07,1.4799422002467e-07,-2.6544063749953e-08,-16.59373356566,31.420694553089,-0.87995497418563,0.31388888888889,50400.0,1,1100.0,530.0,0.2,17.0
456,9849600,114.0,-0.0001233462907432,0.0001456400420404,-2.229375129713e-05,-1.230243789251e-07,1.4999529078044e-07,-2.6970911855339e-08,-16.592795580595,31.524048554812,-0.86965334431462,0.31666666666667,50400.0,1,1100.0,530.0,0.2,17.0
460,9936000,115.0,-0.0001241162832658,0.0001465315175298,-2.2415234264015e-05,-1.2460858621874e-07,1.5201046371199e-07,-2.7401877493254e-08,-16.591935016982,31.627604731744,-0.85931558141157,0.31944444444444,50400.0,1,1100.0,530.0,0.2,17.0
464,10022400,116.0,-0.0001248846052766,0.0001474210519329,-2.2536446656362e-05,-1.2620281175345e-07,1.5403979380905e-07,-2.7836982055596e-08,-16.591033888828,31.730881842868,-0.84905048788066,0.32222222222222,50400.0,1,1100.0,530.0,0.2,17.0
468,10108800,117.0,-0.0001256512840728,0.0001483086807089,-2.2657396636071e-05,-1.2780709131239e-07,1.5608333874926e-07,-2.827624743687e-08,-16.59012836181,31.83412600417,-0.83877648442296,0.325,50400.0,1,1100.0,530.0,0.2,17.0
472,10195200,118.0,-0.0001264164170286,0.0001491945183471,-2.2778101318545e-05,-1.294215056339e-07,1.5814121326284e-07,-2.8719707628937e-08,-16.587670554775,31.945764548764,-0.82476047410438,0.32777777777778,50400.0,1,1100.0,530.0,0.2,17.0
476,10281600,119.0,-0.0001271798960596,0.0001500784409717,-2.289854491208e-05,-1.3104600158044e-07,1.6021336237306e-07,-2.9167360792623e-08,-16.588411155921,32.040439317686,-0.81830565011454,0.33055555555556,50400.0,1,1100.0,530.0,0.2,17.0
480,10368000,120.0,-0.0001279418149112,0.0001509605594607,-2.3018744549514e-05,-1.3268065797109e-07,1.6229989839534e-07,-2.9619240424252e-08,-16.587544256172,32.143502259156,-0.80809010804537,0.33333333333333,50400.0,1,1100.0,530.0,0.2,17.0
484,10454400,121.0,-0.0001287022008056,0.0001518409072066,-2.3138706401033e-05,-1.3432551117709e-07,1.6440087986075e-07,-3.0075368683666e-08,-16.586675063684,32.246509390866,-0.797869362757,0.33611111111111,50400.0,1,1100.0,530.0,0.2,17.0
488,10540800,122.0,-0.0001294610768867,0.0001527195128384,-2.3258435951702e-05,-1.3598059526812e-07,1.6651636247004e-07,-3.0535767201918e-08,-16.585781431829,32.349238894495,-0.78772455689711,0.33888888888889,50400.0,1,1100.0,530.0,0.2,17.0
492,10627200,123.0,-0.0001302184719061,0.0001535964113089,-2.3377939402811e-05,-1.3764594859478e-07,1.6864640727036e-07,-3.1000458675575e-08,-16.584943996087,32.452197427471,-0.77751714564703,0.34166666666667,50400.0,1,1100.0,530.0,0.2,17.0
496,10713600,124.0,-0.0001309744750898,0.0001544717079429,-2.3497232853054e-05,-1.3932165146654e-07,1.7079112881023e-07,-3.1469477343692e-08,-16.582455260565,32.56336170853,-0.76357683262303,0.34444444444444,50400.0,1,1100.0,530.0,0.2,17.0
500,10800000,125.0,-0.0001317289771562,0.0001553452772274,-2.3616300071202e-05,-1.4100764965442e-07,1.729504705949e-07,-3.194282094048e-08,-16.583247510851,32.657639116344,-0.75723909280701,0.34722222222222,50400.0,1,1100.0,530.0,0.2,17.0
504,10886400,126.0,-0.0001324820665364,0.0001562172235642,-2.37351570278e-05,-1.4270402301359e-07,1.7512454646657e-07,-3.2420523452975e-08,-16.582373267419,32.760176091445,-0.74710962271706,0.35,50400.0,1,1100.0,530.0,0.2,17.0
508,10972800,127.0,-0.0001332338353727,0.000157087655331,-2.3853819958309e-05,-1.4441085571481e-07,1.7731347607188e-07,-3.2902620357076e-08,-16.57991303706,32.871253519272,-0.7331928107249,0.35277777777778,50400.0,1,1100.0,530.0,0.2,17.0
512,11059200,128.0,-0.0001339841693396,0.0001579564410455,-2.397227170586e-05,-1.4612808985573e-07,1.7951719812788e-07,-3.3389108272146e-08,-16.580662319572,32.965120875385,-0.72692173523524,0.35555555555556,50400.0,1,1100.0,530.0,0.2,17.0
516,11145600,129.0,-0.0001347331580676,0.0001588236868488,-2.4090528781165e-05,-1.4785580876122e-07,1.8173583105512e-07,-3.3880022293894e-08,-16.579837517366,33.067569687383,-0.71682814341551,0.35833333333333,50400.0,1,1100.0,530.0,0.2,17.0
520,11232000,130.0,-0.000135480823056,0.0001596894179252,-2.4208594869177e-05,-1.4959404760485e-07,1.8396943215962e-07,-3.4375384554775e-08,-16.578955533474,33.169830888041,-0.70675857041947,0.36111111111111,50400.0,1,1100.0,530.0,0.2,17.0
524,11318400,131.0,-0.0001362272510676,0.0001605537369068,-2.4326485839267e-05,-1.5134289032219e-07,1.8621812089569e-07,-3.4875230573499e-08,-16.57644796096,33.280512053853,-0.69288857072032,0.36388888888889,50400.0,1,1100.0,530.0,0.2,17.0
528,11404800,132.0,-0.0001369723303557,0.0001614165150629,-2.4444184707296e-05,-1.5310228039061e-07,1.8848183765149e-07,-3.5379557260878e-08,-16.57725759819,33.37425742997,-0.68665731892553,0.36666666666667,50400.0,1,1100.0,530.0,0.2,17.0
532,11491200,133.0,-0.0001377162119975,0.0001622779292522,-2.4561717254657e-05,-1.5487234736509e-07,1.9076076009366e-07,-3.5888412728562e-08,-16.574712382339,33.484825253648,-0.6727730554961,0.36944444444444,50400.0,1,1100.0,530.0,0.2,17.0
536,11577600,134.0,-0.0001384587852051,0.000163137851823,-2.4679066617913e-05,-1.56653035119e-07,1.9305482906787e-07,-3.6401793948863e-08,-16.575549121349,33.578524523076,-0.66654866172317,0.37222222222222,50400.0,1,1100.0,530.0,0.2,17.0
540,11664000,135.0,-0.0001392001277499,0.0001639963748377,-2.4796247087808e-05,-1.584444221509e-07,1.9536415726276e-07,-3.6919735111862e-08,-16.574594842946,33.680089307335,-0.65661250200902,0.375,50400.0,1,1100.0,530.0,0.2,17.0
544,11750400,136.0,-0.0001399403321378,0.0001648536057031,-2.4913273565262e-05,-1.6024659783604e-07,1.9768887127769e-07,-3.7442273441642e-08,-16.572159259305,33.790544385719,-0.64281401622485,0.37777777777778,50400.0,1,1100.0,530.0,0.2,17.0
548,11836800,137.0,-0.0001406792840491,0.0001657094131027,-2.5030129053625e-05,-1.6205950400232e-07,2.0002890921263e-07,-3.7969405210305e-08,-16.572973494205,33.884091956588,-0.63658338028877,0.38055555555556,50400.0,1,1100.0,530.0,0.2,17.0
552,11923200,138.0,-0.0001414170601259,0.0001665638872504,-2.5146827124559e-05,-1.6388321934657e-07,2.0238438419211e-07,-3.8501164845539e-08,-16.572030113972,33.985422566015,-0.62670189711068,0.38333333333333,50400.0,1,1100.0,530.0,0.2,17.0
556,12009600,139.0,-0.0001421536829946,0.0001674170553355,-2.5263372340982e-05,-1.657177845784e-07,2.04755360682e-07,-3.9037576103601e-08,-16.571174711545,34.087119904524,-0.61673586974643,0.38611111111111,50400.0,1,1100.0,530.0,0.2,17.0
560,12096000,140.0,-0.0001428891689264,0.0001682689372978,-2.5379768371412e-05,-1.6756323612965e-07,2.0714189779477e-07,-3.9578661665117e-08,-16.570328675995,34.188680823161,-0.60681632884846,0.38888888888889,50400.0,1,1100.0,530.0,0.2,17.0
564,12182400,141.0,-0.0001436235352721,0.0001691195540517,-2.5496018779606e-05,-1.6941961152824e-07,2.0954405604652e-07,-4.0124444518285e-08,-16.569481607321,34.290255899844,-0.59688226683266,0.39166666666667,50400.0,1,1100.0,530.0,0.2,17.0
568,12268800,142.0,-0.0001443567992086,0.0001699689264076,-2.5612127199051e-05,-1.7128694860391e-07,2.11961896318e-07,-4.0674947714091e-08,-16.568684292407,34.391819549665,-0.58696516390247,0.39444444444444,50400.0,1,1100.0,530.0,0.2,17.0
572,12355200,143.0,-0.0001450889748376,0.0001708170716664,-2.5728096828846e-05,-1.7316528318025e-07,2.1439547699135e-07,-4.1230193811099e-08,-16.56782239208,34.493206696938,-0.57705255742181,0.39722222222222,50400.0,1,1100.0,530.0,0.2,17.0
576,12441600,144.0,-0.0001458201429923,0.0001716640846438,-2.5843941651483e-05,-1.7505470206388e-07,2.1684492189651e-07,-4.1790219832627e-08,-16.565341997487,34.602987991956,-0.56337188040172,0.4,50400.0,1,1100.0,530.0,0.2,17.0
580,12528000,145.0,-0.000146550251826,0.0001725099062296,-2.5959654403618e-05,-1.7695519333831e-07,2.193102282978e-07,-4.2355034959491e-08,-16.564479212864,34.704187549682,-0.55350714075737,0.40277777777778,50400.0,1,1100.0,530.0,0.2,17.0
584,12614400,146.0,-0.0001472793183951,0.0001733545558838,-2.6075237488784e-05,-1.7886679483769e-07,2.2179145718619e-07,-4.2924662348496e-08,-16.563631429261,34.805431201414,-0.54362521015545,0.40555555555556,50400.0,1,1100.0,530.0,0.2,17.0
588,12700800,147.0,-0.00014800728889,0.0001741979724184,-2.6190683528411e-05,-1.8078949175526e-07,2.2428860207061e-07,-4.3499110315351e-08,-16.564363106425,34.897935501655,-0.53759734508523,0.40833333333333,50400.0,1,1100.0,530.0,0.2,17.0
592,12787200,148.0,-0.0001487342463275,0.0001750402530801,-2.6306006752632e-05,-1.8272337329811e-07,2.2680178987565e-07,-4.4078416577541e-08,-16.563563816537,34.999089421607,-0.52776219277625,0.41111111111111,50400.0,1,1100.0,530.0,0.2,17.0
596,12873600,149.0,-0.0001494602039638,0.0001758814139282,-2.6421209964388e-05,-1.8466847635774e-07,2.2933108046257e-07,-4.466260410483e-08,-16.562712276945,35.100154443796,-0.51790488068902,0.41388888888889,50400.0,1,1100.0,530.0,0.2,17.0
600,12960000,150.0,-0.0001501851766745,0.0001767214728642,-2.6536296189737e-05,-1.8662483939696e-07,2.3187653571934e-07,-4.5251696322386e-08,-16.561857093937,35.201269914279,-0.50800871490482,0.41666666666667,50400.0,1,1100.0,530.0,0.2,17.0
604,13046400,151.0,-0.0001509091750827,0.0001775604434926,-2.6651268409894e-05,-1.8859249843713e-07,2.34438214536e-07,-4.5845716098866e-08,-16.561061651032,35.302071650456,-0.49826426322527,0.41944444444444,50400.0,1,1100.0,530.0,0.2,17.0
608,13132800,152.0,-0.0001516322776946,0.0001783984165625,-2.6766138867879e-05,-1.9057154167336e-07,2.3701624281764e-07,-4.6444701144278e-08,-16.558526498808,35.41133011543,-0.48462937729654,0.42222222222222,50400.0,1,1100.0,530.0,0.2,17.0
612,13219200,153.0,-0.0001523543659879,0.000179235254617,-2.6880888629117e-05,-1.925619037879e-07,2.3961054916098e-07,-4.7048645373075e-08,-16.559274894026,35.503376891842,-0.47870192425178,0.425,50400.0,1,1100.0,530.0,0.2,17.0
616,13305600,154.0,-0.0001530755853608,0.0001800711286283,-2.6995543267514e-05,-1.9456372841055e-07,2.4222133077366e-07,-4.7657602363109e-08,-16.55685339548,35.612741044029,-0.46508423653192,0.42777777777778,50400.0,1,1100.0,530.0,0.2,17.0
620,13392000,155.0,-0.0001537958180015,0.0001809059014776,-2.7110083476032e-05,-1.9657694988141e-07,2.4484851577496e-07,-4.8271565893551e-08,-16.557684403678,35.704981238011,-0.45912966734791,0.43055555555556,50400.0,1,1100.0,530.0,0.2,17.0
624,13478400,156.0,-0.0001545152024168,0.0001817397347873,-2.7224532370522e-05,-1.9860170643436e-07,2.4749229462063e-07,-4.8890588186268e-08,-16.555148802004,35.813898873042,-0.4455630184186,0.43333333333333,50400.0,1,1100.0,530.0,0.2,17.0
628,13564800,157.0,-0.0001552336232333,0.0001825724948394,-2.7338871606021e-05,-2.0063793445289e-07,2.5015259796287e-07,-4.9514663509976e-08,-16.555913876934,35.905993549405,-0.43958706541991,0.43611111111111,50400.0,1,1100.0,530.0,0.2,17.0
632,13651200,158.0,-0.0001559512205411,0.0001834043450202,-2.7453124479116e-05,-2.0268577495759e-07,2.5282962000483e-07,-5.0143845047235e-08,-16.553467875846,36.01488212294,-0.42607497359081,0.43888888888889,50400.0,1,1100.0,530.0,0.2,17.0
636,13737600,159.0,-0.0001566678760295,0.0001842351481777,-2.7567272148163e-05,-2.0474516148362e-07,2.5552328766626e-07,-5.0778126182635e-08,-16.554222638424,36.106772521316,-0.42013686624563,0.44166666666667,50400.0,1,1100.0,530.0,0.2,17.0
640,13824000,160.0,-0.0001573836671583,0.0001850649948213,-2.7681327662965e-05,-2.0681618506428e-07,2.582337307503e-07,-5.1417545686014e-08,-16.553386555503,36.207227617635,-0.41037274318753,0.44444444444444,50400.0,1,1100.0,530.0,0.2,17.0
644,13910400,161.0,-0.0001580986040617,0.0001858938972038,-2.7795293142078e-05,-2.0889888317093e-07,2.6096101023328e-07,-5.2062127062345e-08,-16.552563565657,36.307524965138,-0.40067382333249,0.44722222222222,50400.0,1,1100.0,530.0,0.2,17.0
648,13996800,162.0,-0.0001588126953142,0.0001867218657334,-2.7909170419183e-05,-2.1099329222837e-07,2.6370518564189e-07,-5.2711893413515e-08,-16.551683232483,36.407610039911,-0.39098823525967,0.45,50400.0,1,1100.0,530.0,0.2,17.0
652,14083200,163.0,-0.000159525953134,0.0001875489149418,-2.8022961807847e-05,-2.1309945189161e-07,2.6646632075629e-07,-5.3366868864674e-08,-16.550879988325,36.50776940588,-0.3813274459599,0.45277777777778,50400.0,1,1100.0,530.0,0.2,17.0
656,14169600,164.0,-0.0001602383868613,0.0001883750560881,-2.8136669226823e-05,-2.1521739968609e-07,2.692444765849e-07,-5.4027076898814e-08,-16.549974973176,36.607863575616,-0.37160253113331,0.45555555555556,50400.0,1,1100.0,530.0,0.2,17.0
660,14256000,165.0,-0.0001609500721083,0.0001892003774079,-2.8250305299583e-05,-2.173472289473e-07,2.7203978627625e-07,-5.4692557328945e-08,-16.547554397717,36.716452266211,-0.35813270628725,0.45833333333333,50400.0,1,1100.0,530.0,0.2,17.0
664,14342400,166.0,-0.000161660889831,0.0001900247406905,-2.8363850859453e-05,-2.1948887083093e-07,2.7485217347799e-07,-5.5363302647064e-08,-16.548362231019,36.808014804849,-0.35226475942687,0.46111111111111,50400.0,1,1100.0,530.0,0.2,17.0
668,14428800,167.0,-0.0001623709767418,0.0001908483053943,-2.8477328652447e-05,-2.2164247009118e-07,2.7768183789085e-07,-5.6039367799673e-08,-16.545893139327,36.91640363512,-0.33881307650222,0.46388888888889,50400.0,1,1100.0,530.0,0.2,17.0
672,14515200,168.0,-0.0001630802144128,0.0001916709339441,-2.8590719531219e-05,-2.2380795763265e-07,2.8052870275346e-07,-5.6720745120814e-08,-16.546703229914,37.007781150862,-0.33298902372235,0.46666666666667,50400.0,1,1100.0,530.0,0.2,17.0
676,14601600,169.0,-0.0001637886757783,0.0001924927121966,-2.8704036418334e-05,-2.2598542582412e-07,2.8339290005076e-07,-5.7407474226631e-08,-16.545868414538,37.107689097376,-0.32332128327811,0.46944444444444,50400.0,1,1100.0,530.0,0.2,17.0
680,14688000,170.0,-0.0001644963705973,0.0001933136505556,-2.8817279958326e-05,-2.2817491212612e-07,2.8627449088194e-07,-5.8099578755812e-08,-16.545015840366,37.207421020853,-0.31369240449106,0.47222222222222,50400.0,1,1100.0,530.0,0.2,17.0
684,14774400,171.0,-0.0001652033079797,0.0001941337598766,-2.8930451896908e-05,-2.3037645536251e-07,2.8917353812633e-07,-5.8797082763825e-08,-16.544204650851,37.307087317787,-0.30410881918678,0.475,50400.0,1,1100.0,530.0,0.2,17.0
688,14860800,172.0,-0.0001659094948077,0.0001949530489718,-2.9043554164084e-05,-2.3259009330996e-07,2.9209010325612e-07,-5.9500009946158e-08,-16.543316166168,37.406673494747,-0.2944781404774,0.47777777777778,50400.0,1,1100.0,530.0,0.2,17.0
692,14947200,173.0,-0.0001666150043052,0.0001957716038848,-2.9156599579631e-05,-2.3481592153741e-07,2.9502432270752e-07,-6.0208401170104e-08,-16.540870118018,37.51480820814,-0.28105895523246,0.48055555555556,50400.0,1,1100.0,530.0,0.2,17.0
696,15033600,174.0,-0.0001673197155899,0.0001965892835023,-2.9269567912403e-05,-2.3705638542388e-07,2.9798112149421e-07,-6.092473607033e-08,-16.541614600158,37.605749866959,-0.27527087817321,0.48333333333333,50400.0,1,1100.0,530.0,0.2,17.0
700,15120000,175.0,-0.0001680237016656,0.0001974061730911,-2.9382471425539e-05,-2.3930908552072e-07,3.0095567464194e-07,-6.1646589121223e-08,-16.540773005452,37.705221836122,-0.26568207826544,0.48611111111111,50400.0,1,1100.0,530.0,0.2,17.0
704,15206400,176.0,-0.000168726970031,0.0001982222815626,-2.9495311531524e-05,-2.4157406020661e-07,3.0394804470421e-07,-6.2373984497594e-08,-16.539920576978,37.804572919157,-0.25612548459552,0.48888888888889,50400.0,1,1100.0,530.0,0.2,17.0
708,15292800,177.0,-0.0001694295948575,0.000199037695372,-2.9608100514449e-05,-2.4385392493314e-07,3.0696337014273e-07,-6.3109445209582e-08,-16.537515116709,37.912566795868,-0.24273234935027,0.49166666666667,50400.0,1,1100.0,530.0,0.2,17.0
712,15379200,178.0,-0.0001701315188007,0.0001998523478619,-2.9720829061217e-05,-2.4614616990423e-07,3.0999669020293e-07,-6.3850520298705e-08,-16.536686900542,38.011954877841,-0.23314983274014,0.49444444444444,50400.0,1,1100.0,530.0,0.2,17.0
716,15465600,179.0,-0.0001708327479057,0.0002006662462806,-2.9833498374897e-05,-2.4845083271959e-07,3.1304806631257e-07,-6.4597233592978e-08,-16.535839188839,38.111189310875,-0.22359473008856,0.49722222222222,50400.0,1,1100.0,530.0,0.2,17.0
720,15552000,180.0,-0.0001715332250429,0.0002014793243129,-2.9946099269918e-05,-2.5076789454968e-07,3.161174867635e-07,-6.5349592213827e-08,-16.536584362694,38.201807307985,-0.21785788408915,0.5,50400.0,1,1100.0,530.0,0.2,17.0
723,15573600,180.25,-0.0001715332250429,0.0002014793243129,-2.9946099269918e-05,-2.5076789454968e-07,3.161174867635e-07,-6.5349592213827e-08,0.33874639624607,59.402175237329,41.693247801456,0.50069444444444,90000.0,3,25.0,25.0,0.1,0.1
727,15674400,181.41666666667,-0.0001715801320354,0.0002015335587722,-2.9953426736849e-05,-2.5091934147447e-07,3.163160741446e-07,-6.5396732670134e-08,-16.537325884579,38.216296345547,-0.22175131111988,0.50393518518519,50400.0,1,1100.0,530.0,0.2,17.0
731,15760800,182.41666666667,-0.000172279903201,0.0002023458739893,-3.0065970788249e-05,-2.5324975390569e-07,3.1940491632676e-07,-6.6155162421068e-08,-16.534109102101,38.315787969556,-0.20396628778274,0.50671296296296,50400.0,1,1100.0,530.0,0.2,17.0
735,15847200,183.41666666667,-0.0001729790030526,0.0002031574630107,-3.0178459958029e-05,-2.5559270451141e-07,3.2251201001606e-07,-6.6919305504644e-08,-16.53327190924,38.414906971779,-0.19442658056041,0.50949074074074,50400.0,1,1100.0,530.0,0.2,17.0
739,15933600,184.41666666667,-0.0001736774396449,0.0002039683353395,-3.0290895694636e-05,-2.5794823416419e-07,3.2563742147486e-07,-6.7689187310665e-08,-16.532470144817,38.514071123267,-0.18488136595233,0.51226851851852,50400.0,1,1100.0,530.0,0.2,17.0
743,16020000,185.41666666667,-0.0001743751544493,0.0002047784235042,-3.0403269054882e-05,-2.6031631459573e-07,3.2878112307581e-07,-6.8464808480077e-08,-16.533251046404,38.604610593423,-0.17915288629349,0.5150462962963,50400.0,1,1100.0,530.0,0.2,17.0
747,16106400,186.41666666667,-0.0001750722191837,0.0002055878099424,-3.0515590758713e-05,-2.6269705842649e-07,3.3194328049604e-07,-6.9246222069559e-08,-16.53241330087,38.703580228235,-0.16963076229401,0.51782407407407,50400.0,1,1100.0,530.0,0.2,17.0
751,16192800,187.41666666667,-0.0001757686393408,0.0002063965017604,-3.0627862419614e-05,-2.650904964688e-07,3.3512394349582e-07,-7.0033447027017e-08,-16.531584017562,38.802428992587,-0.16014070608514,0.52060185185185,50400.0,1,1100.0,530.0,0.2,17.0
755,16279200,188.41666666667,-0.0001764644216628,0.0002072045068777,-3.0740085214875e-05,-2.6749666846213e-07,3.3832317656456e-07,-7.0826508102426e-08,-16.530743802932,38.901273476721,-0.15063092436787,0.52337962962963,50400.0,1,1100.0,530.0,0.2,17.0
759,16365600,189.41666666667,-0.0001771595739017,0.00020801183371,-3.0852259808283e-05,-2.6991562083975e-07,3.4154105526395e-07,-7.1625434424204e-08,-16.529976919752,39.000046940622,-0.14120368572189,0.52615740740741,50400.0,1,1100.0,530.0,0.2,17.0
763,16452000,190.41666666667,-0.0001778541630766,0.0002088185617306,-3.0964398653993e-05,-2.7234743869213e-07,3.4477769870676e-07,-7.2430260014631e-08,-16.527468332057,39.107349549006,-0.12784063513357,0.52893518518519,50400.0,1,1100.0,530.0,0.2,17.0
767,16538400,191.41666666667,-0.0001785480697822,0.0002096245512416,-3.1076481459417e-05,-2.7479205092526e-07,3.4803302935018e-07,-7.3240978424916e-08,-16.528308949164,39.19751252705,-0.12222613933278,0.53171296296296,50400.0,1,1100.0,530.0,0.2,17.0
771,16624800,192.41666666667,-0.0001792414245994,0.0002104299543658,-3.1188529766377e-05,-2.7724961357552e-07,3.5130726341433e-07,-7.4057649838812e-08,-16.525821887326,39.304560013516,-0.10894879847961,0.53449074074074,50400.0,1,1100.0,530.0,0.2,17.0
775,16711200,193.41666666667,-0.0001799341129336,0.0002112346374773,-3.130052454365e-05,-2.7972005474109e-07,3.5460032025992e-07,-7.4880265518832e-08,-16.526748152694,39.394997411064,-0.10326480343374,0.53726851851852,50400.0,1,1100.0,530.0,0.2,17.0
779,16797600,194.41666666667,-0.0001806261942858,0.0002120386702194,-3.1412475933597e-05,-2.8220346238504e-07,3.5791232692043e-07,-7.5708864535385e-08,-16.525765412348,39.493183559774,-0.093822452188724,0.5400462962963,50400.0,1,1100.0,530.0,0.2,17.0
783,16884000,195.41666666667,-0.0001813177422073,0.0002128421381312,-3.1524395923917e-05,-2.8469994152997e-07,3.6124343356096e-07,-7.6543492030986e-08,-16.523334331656,39.600152187975,-0.080586808968102,0.54282407407407,50400.0,1,1100.0,530.0,0.2,17.0
787,16970400,196.41666666667,-0.0001820086342103,0.0002136448985525,-3.1636264342234e-05,-2.8720941081444e-07,3.6459354673736e-07,-7.7384135922918e-08,-16.524071412071,39.689943529273,-0.074963552626165,0.54560185185185,50400.0,1,1100.0,530.0,0.2,17.0
791,17056800,197.41666666667,-0.0001826989414523,0.0002144470344602,-3.1748093007858e-05,-2.897319715336e-07,3.6796281140241e-07,-7.823083986881e-08,-16.523244205367,39.788461806666,-0.065491647350694,0.54837962962963,50400.0,1,1100.0,530.0,0.2,17.0
795,17143200,198.41666666667,-0.0001833886680032,0.0002152485505336,-3.1859882530388e-05,-2.9226766215355e-07,3.7135129049525e-07,-7.9083628341695e-08,-16.522453348665,39.886727012784,-0.056100670504536,0.55115740740741,50400.0,1,1100.0,530.0,0.2,17.0
799,17229600,199.41666666667,-0.0001840778213383,0.000216049455459,-3.1971634120688e-05,-2.9481652496363e-07,3.7475905221836e-07,-7.9942527254728e-08,-16.521667348377,39.985178980024,-0.046647614052419,0.55393518518519,50400.0,1,1100.0,530.0,0.2,17.0
803,17316000,200.41666666667,-0.0001847664018119,0.0002168497496856,-3.2083347873663e-05,-2.9737859513443e-07,3.781861553183e-07,-8.0807560183877e-08,-16.520779847751,40.083179231486,-0.037268859240752,0.55671296296296,50400.0,1,1100.0,530.0,0.2,17.0
807,17402400,201.41666666667,-0.0001854544172665,0.0002176494422714,-3.2195025004875e-05,-2.9995391587309e-07,3.8163266923123e-07,-8.1678753358143e-08,-16.519955878956,40.181381860465,-0.027847289967921,0.55949074074074,50400.0,1,1100.0,530.0,0.2,17.0
811,17488800,202.41666666667,-0.0001861418729837,0.0002184485393918,-3.2306666408079e-05,-3.0254252691059e-07,3.8509865856688e-07,-8.2556131656294e-08,-16.519152215293,40.279555951555,-0.018443918885697,0.56226851851852,50400.0,1,1100.0,530.0,0.2,17.0
815,17575200,203.41666666667,-0.0001868287722168,0.0002192470448293,-3.241827261251e-05,-3.0514446664797e-07,3.8858418641853e-07,-8.3439719770568e-08,-16.518314131004,40.377555484034,-0.0090717681652633,0.5650462962963,50400.0,1,1100.0,530.0,0.2,17.0
819,17661600,204.41666666667,-0.0001875151846203,0.0002200450396396,-3.25298550193e-05,-3.0775983935242e-07,3.9208940206077e-07,-8.4329562708351e-08,-16.515920945448,40.484185751462,0.0041234802512465,0.56782407407407,50400.0,1,1100.0,530.0,0.2,17.0
823,17748000,205.41666666667,-0.0001882010503577,0.0002208424540193,-3.2641403661595e-05,-3.1038862294057e-07,3.9561428955281e-07,-8.5225666612241e-08,-16.515086882437,40.582157648464,0.01351101167769,0.57060185185185,50400.0,1,1100.0,530.0,0.2,17.0
827,17834400,206.41666666667,-0.0001888863737728,0.0002216392929922,-3.275291921935e-05,-3.1303085750604e-07,3.9915891422985e-07,-8.6128056723814e-08,-16.514249288815,40.680101723885,0.022902040704362,0.57337962962963,50400.0,1,1100.0,530.0,0.2,17.0
831,17920800,207.41666666667,-0.0001895710960691,0.0002224354880303,-3.2864391961225e-05,-3.156865199007e-07,4.0272325859988e-07,-8.7036738699172e-08,-16.514987860605,40.769463785216,0.028492756080455,0.57615740740741,50400.0,1,1100.0,530.0,0.2,17.0
835,18007200,208.41666666667,-0.0001902553486031,0.0002232311922418,-3.2975843638754e-05,-3.1835577484285e-07,4.0630755084785e-07,-8.7951776004997e-08,-16.512629474362,40.875832763571,0.041621932948679,0.57893518518519,50400.0,1,1100.0,530.0,0.2,17.0
839,18093600,209.41666666667,-0.0001909390079687,0.0002240262616283,-3.3087253659641e-05,-3.210385363474e-07,4.0991169153344e-07,-8.8873155186039e-08,-16.51337358536,40.964972580318,0.047159962321578,0.58171296296296,50400.0,1,1100.0,530.0,0.2,17.0
843,18180000,210.41666666667,-0.0001916221424834,0.0002248207758733,-3.3198633389827e-05,-3.2373490744355e-07,4.1353582831501e-07,-8.9800920871458e-08,-16.512569551881,41.062699127426,0.056492228975388,0.58449074074074,50400.0,1,1100.0,530.0,0.2,17.0
847,18266400,211.41666666667,-0.0001923047636544,0.0002256147473236,-3.3309983669203e-05,-3.2644494381936e-07,4.1718004972376e-07,-9.0735105904396e-08,-16.511858858622,41.160957994782,0.065975480695498,0.58726851851852,50400.0,1,1100.0,530.0,0.2,17.0
851,18352800,212.41666666667,-0.0001929868625103,0.0002264081677991,-3.3421305288877e-05,-3.2916864996334e-07,4.2084436647582e-07,-9.1675716512486e-08,-16.511016934912,41.258140366639,0.075154641623878,0.5900462962963,50400.0,1,1100.0,530.0,0.2,17.0
855,18439200,213.41666666667,-0.0001936684457321,0.0002272010429273,-3.3532597195231e-05,-3.3190609257818e-07,4.2452888788673e-07,-9.2622795308555e-08,-16.510046879876,41.355440228383,0.084499568527062,0.59282407407407,50400.0,1,1100.0,530.0,0.2,17.0
859,18525600,214.41666666667,-0.0001943495844485,0.0002279934568251,-3.364387237663e-05,-3.3465736310932e-07,4.2823373982984e-07,-9.3576376720524e-08,-16.507678826819,41.461711760271,0.097661709697363,0.59560185185185,50400.0,1,1100.0,530.0,0.2,17.0
863,18612000,215.41666666667,-0.0001950301569838,0.000228785266144,-3.3755109160206e-05,-3.3742239226708e-07,4.3195885128727e-07,-9.4536459020191e-08,-16.50846408868,41.550720486229,0.10319943876904,0.59837962962963,50400.0,1,1100.0,530.0,0.2,17.0
867,18698400,216.41666666667,-0.0001957102902019,0.0002295766195046,-3.3866329302731e-05,-3.4020133686014e-07,4.3570443741819e-07,-9.550310055805e-08,-16.50604724424,41.656625339564,0.11628907193036,0.60115740740741,50400.0,1,1100.0,530.0,0.2,17.0
871,18784800,217.41666666667,-0.0001963899268833,0.0002303674499567,-3.3977523073424e-05,-3.4299417601098e-07,4.3947048385209e-07,-9.6476307841106e-08,-16.505249827398,41.754092450381,0.12560925934184,0.60393518518519,50400.0,1,1100.0,530.0,0.2,17.0
875,18871200,218.41666666667,-0.0001970690686712,0.0002311577593608,-3.4088690689614e-05,-3.4580094817958e-07,4.432570539944e-07,-9.7456105814821e-08,-16.504412367827,41.851379220525,0.13490423163816,0.60671296296296,50400.0,1,1100.0,530.0,0.2,17.0
879,18957600,219.41666666667,-0.0001977477200112,0.0002319475528008,-3.4199832789602e-05,-3.4862169457122e-07,4.4706421476014e-07,-9.8442520188921e-08,-16.503583697342,41.948716945041,0.14422057334263,0.60949074074074,50400.0,1,1100.0,530.0,0.2,17.0
883,19044000,220.41666666667,-0.000198425821409,0.0002327367607877,-3.4310939378795e-05,-3.5145638936129e-07,4.5089194500664e-07,-9.9435555645352e-08,-16.504376835099,42.037389208201,0.14969072846723,0.61226851851852,50400.0,1,1100.0,530.0,0.2,17.0
887,19130400,221.41666666667,-0.0001991035019338,0.0002335255337994,-3.4422031865525e-05,-3.5430520383725e-07,4.5474048283822e-07,-1.0043527900097e-07,-16.501964840446,42.143136195908,0.16277865927112,0.6150462962963,50400.0,1,1100.0,530.0,0.2,17.0
891,19216800,222.41666666667,-0.0001997807026633,0.0002343138028941,-3.4533100230801e-05,-3.5716811433041e-07,4.5860981013571e-07,-1.0144169580529e-07,-16.50114857752,42.240308619098,0.17206515420513,0.61782407407407,50400.0,1,1100.0,530.0,0.2,17.0
895,19303200,223.41666666667,-0.0002004573640205,0.0002351014984802,-3.4644134459724e-05,-3.6004509477224e-07,4.6249990535939e-07,-1.0245481058715e-07,-16.501914744077,42.328910238012,0.17756300027624,0.62060185185185,50400.0,1,1100.0,530.0,0.2,17.0
899,19389600,224.41666666667,-0.0002011336129403,0.0002358887685957,-3.475515565543e-05,-3.6293631581074e-07,4.664110060373e-07,-1.0347469022656e-07,-16.499490651683,42.434375135217,0.19059377530504,0.62337962962963,50400.0,1,1100.0,530.0,0.2,17.0
903,19476000,225.41666666667,-0.000201809391694,0.000236675545682,-3.4866153988002e-05,-3.6584175388151e-07,4.7034309384793e-07,-1.0450133996643e-07,-16.498693318893,42.531381307143,0.19984650763895,0.62615740740741,50400.0,1,1100.0,530.0,0.2,17.0
907,19562400,226.41666666667,-0.0002024847039483,0.0002374618338893,-3.4977129941092e-05,-3.6876145083355e-07,4.7429623696131e-07,-1.0553478612776e-07,-16.497877808306,42.628453324633,0.20914026720193,0.62893518518519,50400.0,1,1100.0,530.0,0.2,17.0
911,19648800,227.41666666667,-0.0002031595525513,0.0002382476356778,-3.5088083126529e-05,-3.7169545404209e-07,4.7827051316521e-07,-1.0657505912313e-07,-16.497069698109,42.725342065261,0.21837932252822,0.63171296296296,50400.0,1,1100.0,530.0,0.2,17.0
915,19735200,228.41666666667,-0.0002038338759925,0.000239032880703,-3.5199004710576e-05,-3.7464371943326e-07,4.8226587195987e-07,-1.0762215252661e-07,-16.497834337501,42.813620398384,0.22381425452525,0.63449074074074,50400.0,1,1100.0,530.0,0.2,17.0
919,19821600,229.41666666667,-0.000204507804052,0.0002398177194692,-3.5309915417261e-05,-3.7760643153755e-07,4.8628257210722e-07,-1.0867614056966e-07,-16.495419890875,42.919034312624,0.23688233626746,0.63726851851852,50400.0,1,1100.0,530.0,0.2,17.0
923,19908000,230.41666666667,-0.0002051812188329,0.0002406020142825,-3.5420795449585e-05,-3.8058350056462e-07,4.9032050820192e-07,-1.097370076373e-07,-16.496302865455,43.007647632262,0.24238333126062,0.6400462962963,50400.0,1,1100.0,530.0,0.2,17.0
927,19994400,231.41666666667,-0.0002058541818486,0.0002413858367462,-3.5531654897627e-05,-3.8357502979693e-07,4.9437982873746e-07,-1.1080479894053e-07,-16.495490362582,43.104457368486,0.25164505911327,0.64282407407407,50400.0,1,1100.0,530.0,0.2,17.0
931,20080800,232.41666666667,-0.0002065267535735,0.0002421692572816,-3.5642503708119e-05,-3.865811245479e-07,4.9846068644609e-07,-1.1187956189819e-07,-16.493014235828,43.209255461239,0.26456597251363,0.64560185185185,50400.0,1,1100.0,530.0,0.2,17.0
935,20167200,233.41666666667,-0.0002071988786322,0.0002429522110844,-3.5753332452256e-05,-3.896017622398e-07,5.0256306406057e-07,-1.1296130182076e-07,-16.492205782303,43.305883358531,0.27378210342419,0.64837962962963,50400.0,1,1100.0,530.0,0.2,17.0
939,20253600,234.41666666667,-0.0002078704969191,0.0002437346279187,-3.5864130999625e-05,-3.9263691409262e-07,5.0668693634166e-07,-1.1405002224904e-07,-16.492956640561,43.393931628905,0.27921842456724,0.65115740740741,50400.0,1,1100.0,530.0,0.2,17.0
943,20340000,235.41666666667,-0.0002085417353906,0.0002445166558613,-3.597492047078e-05,-3.956867568886e-07,5.1083254946396e-07,-1.1514579257536e-07,-16.490560574791,43.498946056605,0.29219803267892,0.65393518518519,50400.0,1,1100.0,530.0,0.2,17.0
947,20426400,236.41666666667,-0.0002092124733798,0.0002452981538119,-3.608568043206e-05,-3.9875119634135e-07,5.1499979201052e-07,-1.1624859566917e-07,-16.49133262657,43.586955984544,0.29762942870921,0.65671296296296,50400.0,1,1100.0,530.0,0.2,17.0
951,20512800,237.41666666667,-0.0002098828371274,0.0002460792690498,-3.6196431922366e-05,-4.0183040967227e-07,5.1918891086913e-07,-1.1735850119686e-07,-16.488932759344,43.691907924774,0.31060981017969,0.65949074074074,50400.0,1,1100.0,530.0,0.2,17.0
955,20599200,238.41666666667,-0.0002105527675319,0.0002468599323511,-3.6307164819125e-05,-4.0492436998295e-07,5.2339988336999e-07,-1.1847551338704e-07,-16.48812588697,43.78832871453,0.31980793060746,0.66226851851852,50400.0,1,1100.0,530.0,0.2,17.0
959,20685600,239.41666666667,-0.0002112222666084,0.0002476401459294,-3.6417879320986e-05,-4.0803311798405e-07,5.2763277624322e-07,-1.1959965825917e-07,-16.487306464796,43.884697900306,0.32900999100046,0.6650462962963,50400.0,1,1100.0,530.0,0.2,17.0
963,20772000,240.41666666667,-0.0002118913364521,0.0002484199120894,-3.6528575637293e-05,-4.1115669394508e-07,5.318876555359e-07,-1.2073096159082e-07,-16.48650991831,43.980964468587,0.33816953323532,0.66782407407407,50400.0,1,1100.0,530.0,0.2,17.0
967,20858400,241.41666666667,-0.0002125599802319,0.0002491992342977,-3.6639254065812e-05,-4.1429514031823e-07,5.3616459042869e-07,-1.2186945011046e-07,-16.485713197413,44.077254389891,0.34735353047088,0.67060185185185,50400.0,1,1100.0,530.0,0.2,17.0
971,20944800,242.41666666667,-0.0002132281996695,0.0002499781144665,-3.6749914796995e-05,-4.1744849674187e-07,5.4046364607912e-07,-1.2301514933726e-07,-16.484894091945,44.173459801329,0.35653058779565,0.67337962962963,50400.0,1,1100.0,530.0,0.2,17.0
975,21031200,243.41666666667,-0.0002138959346392,0.0002507564822349,-3.6860547595629e-05,-4.2061673311226e-07,5.4478479565388e-07,-1.2416806254162e-07,-16.485670022722,44.261002499488,0.36186861364644,0.67615740740741,50400.0,1,1100.0,530.0,0.2,17.0
979,21117600,244.41666666667,-0.000214563312739,0.0002515344864476,-3.6971173708629e-05,-4.2380003205515e-07,5.4912829348609e-07,-1.2532826143094e-07,-16.483271919419,44.365727008663,0.37485633862576,0.67893518518519,50400.0,1,1100.0,530.0,0.2,17.0
983,21204000,245.41666666667,-0.0002152302742764,0.0002523120571441,-3.7081782867664e-05,-4.269983653396e-07,5.5349411533254e-07,-1.2649574999294e-07,-16.482471339481,44.461833259364,0.38402095902119,0.68171296296296,50400.0,1,1100.0,530.0,0.2,17.0
987,21290400,246.41666666667,-0.0002158968210252,0.0002530891962679,-3.7192375242634e-05,-4.3021177334353e-07,5.5788232742068e-07,-1.2767055407715e-07,-16.481666981855,44.557892886433,0.39318219619329,0.68449074074074,50400.0,1,1100.0,530.0,0.2,17.0
991,21376800,247.41666666667,-0.0002165629540009,0.0002538659048619,-3.7302950861055e-05,-4.3344029568302e-07,5.6229299509636e-07,-1.2885269941334e-07,-16.480841218456,44.653804750817,0.40231863895061,0.68726851851852,50400.0,1,1100.0,530.0,0.2,17.0
995,21463200,248.41666666667,-0.0002172286770222,0.0002546421871488,-3.741351012656e-05,-4.3668397582746e-07,5.6672618898339e-07,-1.3004221315593e-07,-16.480056572674,44.749789869512,0.41146112017589,0.6900462962963,50400.0,1,1100.0,530.0,0.2,17.0
999,21549600,249.41666666667,-0.0002178939332886,0.0002554179766639,-3.7524043375318e-05,-4.3994278545405e-07,5.7118188415612e-07,-1.3123909870207e-07,-16.480955641318,44.837433832118,0.41681598223759,0.69282407407407,50400.0,1,1100.0,530.0,0.2,17.0
1003,21636000,250.41666666667,-0.0002185587854385,0.0002561933455867,-3.7634560148143e-05,-4.4321684440056e-07,5.7566025530523e-07,-1.3244341090467e-07,-16.480122816481,44.933457756078,0.42604199412692,0.69560185185185,50400.0,1,1100.0,530.0,0.2,17.0
1007,21722400,251.41666666667,-0.0002192232900079,0.0002569683614008,-3.7745071392923e-05,-4.4650624067578e-07,5.801614265704e-07,-1.3365518589461e-07,-16.477629662372,45.037396350528,0.43889095256003,0.69837962962963,50400.0,1,1100.0,530.0,0.2,17.0
1011,21808800,252.41666666667,-0.0002198873314105,0.0002577428880752,-3.7855556664693e-05,-4.4981088633548e-07,5.8468529682262e-07,-1.3487441048714e-07,-16.47845270902,45.124644902854,0.44419740645372,0.70115740740741,50400.0,1,1100.0,530.0,0.2,17.0
1015,21895200,253.41666666667,-0.0002205510325187,0.0002585170690108,-3.7966036492132e-05,-4.5313096426894e-07,5.8923212147945e-07,-1.3610115721052e-07,-16.476006497676,45.228768377815,0.45711279984487,0.70393518518519,50400.0,1,1100.0,530.0,0.2,17.0
1019,21981600,254.41666666667,-0.000221214336149,0.0002592908371479,-3.8076500998859e-05,-4.5646644711138e-07,5.9380187728659e-07,-1.3733543017521e-07,-16.475226433556,45.324493418994,0.46622977279755,0.70671296296296,50400.0,1,1100.0,530.0,0.2,17.0
1023,22068000,255.41666666667,-0.0002218772431366,0.0002600641933143,-3.8186950177718e-05,-4.5981737470099e-07,5.9839462988785e-07,-1.3857725518687e-07,-16.474417540992,45.420111905961,0.47534405740824,0.70949074074074,50400.0,1,1100.0,530.0,0.2,17.0
1027,22154400,256.41666666667,-0.0002225396937958,0.0002608370676022,-3.8297373806383e-05,-4.6318371496646e-07,6.0301034963926e-07,-1.398266346728e-07,-16.475171843212,45.507180631102,0.4806818895367,0.71226851851852,50400.0,1,1100.0,530.0,0.2,17.0
1031,22240800,257.41666666667,-0.0002232018138592,0.000261609606743,-3.8407792883858e-05,-4.6656565595217e-07,6.0764929906615e-07,-1.4108364311399e-07,-16.472812114164,45.611281997193,0.49357146997891,0.7150462962963,50400.0,1,1100.0,530.0,0.2,17.0
1035,22327200,258.41666666667,-0.0002238635428294,0.0002623817398155,-3.8518196986069e-05,-4.6996316551553e-07,6.1231144849524e-07,-1.4234828297971e-07,-16.472017099456,45.706716344449,0.50264106593786,0.71782407407407,50400.0,1,1100.0,530.0,0.2,17.0
1039,22413600,259.41666666667,-0.0002245248824904,0.0002631534687436,-3.8628586253236e-05,-4.7337628506292e-07,6.1699686577735e-07,-1.4362058071443e-07,-16.471212419245,45.80215285531,0.5117295981922,0.72060185185185,50400.0,1,1100.0,530.0,0.2,17.0
1043,22500000,260.41666666667,-0.0002251857720216,0.0002639247223206,-3.8738950298991e-05,-4.7680497975531e-07,6.217055174333e-07,-1.44900537678e-07,-16.471962585359,45.888907967601,0.51700258996104,0.72337962962963,50400.0,1,1100.0,530.0,0.2,17.0
1047,22586400,261.41666666667,-0.0002258462780027,0.0002646955781238,-3.8849300121084e-05,-4.8024936853317e-07,6.2643757440437e-07,-1.461882058712e-07,-16.471204352639,45.98444128948,0.52611912101851,0.72615740740741,50400.0,1,1100.0,530.0,0.2,17.0
1051,22672800,262.41666666667,-0.0002265064608113,0.0002654661065552,-3.8959645743894e-05,-4.8370956376628e-07,6.3119319887072e-07,-1.4748363510445e-07,-16.468804519835,46.088189496399,0.53897793076444,0.72893518518519,50400.0,1,1100.0,530.0,0.2,17.0
1055,22759200,263.41666666667,-0.000227166261655,0.0002662362386258,-3.9069976970892e-05,-4.8718553506927e-07,6.3597236359714e-07,-1.4878682852787e-07,-16.468001012836,46.183462888064,0.54805367830134,0.73171296296296,50400.0,1,1100.0,530.0,0.2,17.0
1059,22845600,264.41666666667,-0.0002278256822497,0.0002670059762544,-3.9180294004669e-05,-4.9067732291224e-07,6.4077513497272e-07,-1.5009781206048e-07,-16.467206610644,46.278727195633,0.55713160184783,0.73449074074074,50400.0,1,1100.0,530.0,0.2,17.0
1063,22932000,265.41666666667,-0.0002284846621945,0.0002677752486015,-3.9290586407055e-05,-4.9418489331797e-07,6.456014809387e-07,-1.5141658762073e-07,-16.467965552632,46.365358780752,0.56241802317238,0.73726851851852,50400.0,1,1100.0,530.0,0.2,17.0
1067,23018400,266.41666666667,-0.0002291433267694,0.0002685442018942,-3.9400875124842e-05,-4.977084392288e-07,6.5045167121613e-07,-1.5274323198733e-07,-16.465621961702,46.469045946833,0.5752505756619,0.7400462962963,50400.0,1,1100.0,530.0,0.2,17.0
1071,23104800,267.41666666667,-0.0002298015538936,0.0002693126933019,-3.951113940827e-05,-5.0124784910634e-07,6.5532556992866e-07,-1.5407772082232e-07,-16.466383749494,46.555550465889,0.5805121717866,0.74282407407407,50400.0,1,1100.0,530.0,0.2,17.0
1075,23191200,268.41666666667,-0.0002304594128031,0.0002700808034896,-3.9621390686554e-05,-5.0480324774028e-07,6.6022335607779e-07,-1.5542010833751e-07,-16.465704978178,46.651154846353,0.58968175919055,0.74560185185185,50400.0,1,1100.0,530.0,0.2,17.0
1079,23277600,269.41666666667,-0.0002311168973476,0.0002708485251481,-3.9731627800483e-05,-5.0837466674176e-07,6.6514508480522e-07,-1.5677041806346e-07,-16.46488985287,46.745910028631,0.59866019927226,0.74837962962963,50400.0,1,1100.0,530.0,0.2,17.0
1083,23364000,270.41666666667,-0.0002317740089066,0.000271615858999,-3.9841850092426e-05,-5.1196215643789e-07,6.7009083915371e-07,-1.5812868271583e-07,-16.464080568707,46.840515389319,0.60756308037638,0.75115740740741,50400.0,1,1100.0,530.0,0.2,17.0
1087,23450400,271.41666666667,-0.0002324307514304,0.0002723828108624,-3.9952059431994e-05,-5.1556574414405e-07,6.7506066231579e-07,-1.5949491817174e-07,-16.463232121782,46.93560833914,0.61672351805555,0.75393518518519,50400.0,1,1100.0,530.0,0.2,17.0
1091,23536800,272.41666666667,-0.0002330871268506,0.0002731493820796,-4.0062255229021e-05,-5.1918548030127e-07,6.8005463727162e-07,-1.6086915697035e-07,-16.462416742639,47.030576688365,0.62581155674275,0.75671296296296,50400.0,1,1100.0,530.0,0.2,17.0
1095,23623200,273.41666666667,-0.0002337431337924,0.000273915570922,-4.0172437129671e-05,-5.2282140275057e-07,6.8507282754484e-07,-1.6225142479427e-07,-16.461624025289,47.125140620174,0.63473904795662,0.75949074074074,50400.0,1,1100.0,530.0,0.2,17.0
1099,23709600,274.41666666667,-0.0002343988362517,0.0002746814519274,-4.0282615675668e-05,-5.2647363272061e-07,6.9011540759096e-07,-1.6364177487035e-07,-16.459218360775,47.228390451775,0.6475576354118,0.76226851851852,50400.0,1,1100.0,530.0,0.2,17.0
1103,23796000,275.41666666667,-0.000235054175816,0.0002754469565803,-4.0392780764314e-05,-5.3014213712328e-07,6.9518234617287e-07,-1.6504020904959e-07,-16.458431703208,47.323215818608,0.65660162560168,0.7650462962963,50400.0,1,1100.0,530.0,0.2,17.0
1107,23882400,276.41666666667,-0.0002357090911235,0.0002762120129993,-4.0502921875858e-05,-5.3382687720015e-07,7.0027360438259e-07,-1.6644672718243e-07,-16.45921123102,47.409303542239,0.66180711201494,0.76782407407407,50400.0,1,1100.0,530.0,0.2,17.0
1111,23968800,277.41666666667,-0.0002363636453278,0.0002769766948486,-4.0613049520826e-05,-5.375279724121e-07,7.0538935453834e-07,-1.6786138212625e-07,-16.458426526452,47.50392518359,0.67080364561842,0.77060185185185,50400.0,1,1100.0,530.0,0.2,17.0
1115,24055200,278.41666666667,-0.0002370179013272,0.000277741075418,-4.0723174090734e-05,-5.4124554415735e-07,7.105297717184e-07,-1.6928422756105e-07,-16.456040923571,47.607100051348,0.68362645181233,0.77337962962963,50400.0,1,1100.0,530.0,0.2,17.0
1119,24141600,279.41666666667,-0.0002376717992573,0.0002785050844816,-4.0833285224294e-05,-5.4497955623651e-07,7.1569482041469e-07,-1.7071526417818e-07,-16.455246022469,47.701671292766,0.69263390883496,0.77615740740741,50400.0,1,1100.0,530.0,0.2,17.0
1123,24228000,280.41666666667,-0.0002383252799601,0.0002792686527202,-4.0943372760026e-05,-5.4872997164333e-07,7.2088446387566e-07,-1.7215449223234e-07,-16.45605911414,47.787745654581,0.69785608273378,0.77893518518519,50400.0,1,1100.0,530.0,0.2,17.0
1127,24314400,281.41666666667,-0.0002389784650541,0.0002800319221602,-4.105345710605e-05,-5.5249698768365e-07,7.2609897876918e-07,-1.7360199108554e-07,-16.453671247387,47.890671387765,0.7106278121283,0.78171296296296,50400.0,1,1100.0,530.0,0.2,17.0
1131,24400800,282.41666666667,-0.0002396312959729,0.0002807948240539,-4.1163528080936e-05,-5.5628056938553e-07,7.3133833128125e-07,-1.7505776189572e-07,-16.452880971409,47.985119031017,0.7196222665704,0.78449074074074,50400.0,1,1100.0,530.0,0.2,17.0
1135,24487200,283.41666666667,-0.0002402837719315,0.0002815573573739,-4.1273585442403e-05,-5.6008075498505e-07,7.3660258503454e-07,-1.7652183004949e-07,-16.452048891538,48.079372450937,0.72859754338232,0.78726851851852,50400.0,1,1100.0,530.0,0.2,17.0
1139,24573600,284.41666666667,-0.0002409358961284,0.0002823195256101,-4.1383629481703e-05,-5.6389758953677e-07,7.4189181343773e-07,-1.7799422390096e-07,-16.451271586825,48.173747541743,0.73757913734604,0.7900462962963,50400.0,1,1100.0,530.0,0.2,17.0
1143,24660000,285.41666666667,-0.0002415876098042,0.0002830812598582,-4.1493650053941e-05,-5.6773103528912e-07,7.4720597874153e-07,-1.794749434524e-07,-16.452095840145,48.259611491412,0.74277099815551,0.79282407407407,50400.0,1,1100.0,530.0,0.2,17.0
1147,24746400,286.41666666667,-0.0002422389728428,0.0002838426300157,-4.1603657172992e-05,-5.7158121023271e-07,7.5254525152198e-07,-1.8096404128927e-07,-16.451245605252,48.353817063805,0.75177712199833,0.79560185185185,50400.0,1,1100.0,530.0,0.2,17.0
1151,24832800,287.41666666667,-0.0002428899911129,0.0002846036426709,-4.1713651558072e-05,-5.7544816206416e-07,7.5790970849705e-07,-1.8246154643288e-07,-16.450564705055,48.448280429446,0.76076012183751,0.79837962962963,50400.0,1,1100.0,530.0,0.2,17.0
1155,24919200,288.41666666667,-0.0002435406612141,0.0002853642937429,-4.182363252875e-05,-5.7933192647332e-07,7.632994103979e-07,-1.8396748392458e-07,-16.449788055584,48.542295540476,0.76965587344936,0.80115740740741,50400.0,1,1100.0,530.0,0.2,17.0
1159,25005600,289.41666666667,-0.0002441909883884,0.000286124589043,-4.1933600654662e-05,-5.8323255062384e-07,7.6871443286544e-07,-1.854818822416e-07,-16.44904556031,48.636702086639,0.77870354194961,0.80393518518519,50400.0,1,1100.0,530.0,0.2,17.0
1163,25092000,290.41666666667,-0.0002448409684961,0.0002868845237205,-4.2043555224376e-05,-5.8715006875144e-07,7.7415483482521e-07,-1.8700476607377e-07,-16.44822544846,48.730541720625,0.78758329314502,0.80671296296296,50400.0,1,1100.0,530.0,0.2,17.0
1167,25178400,291.41666666667,-0.0002454906012642,0.0002876440971643,-4.215349590012e-05,-5.9108452201857e-07,7.7962068439241e-07,-1.8853616237384e-07,-16.447310911894,48.824273432618,0.79652600873923,0.80949074074074,50400.0,1,1100.0,530.0,0.2,17.0
1171,25264800,292.41666666667,-0.000246139894392,0.000288403318128,-4.2263423736026e-05,-5.9503596059467e-07,7.8511206142653e-07,-1.9007610083187e-07,-16.446586661107,48.918523331661,0.80552699029123,0.81226851851852,50400.0,1,1100.0,530.0,0.2,17.0
1175,25351200,293.41666666667,-0.0002467888427395,0.0002891621812512,-4.2373338511695e-05,-5.9900440383858e-07,7.9062900012265e-07,-1.9162459628407e-07,-16.445731523022,49.01226018112,0.81444281233584,0.8150462962963,50400.0,1,1100.0,530.0,0.2,17.0
1179,25437600,294.41666666667,-0.0002474374538004,0.0002899206935602,-4.2483239759812e-05,-6.0298992967985e-07,7.9617162695471e-07,-1.9318169727486e-07,-16.445003941813,49.106348738297,0.82339921661152,0.81782407407407,50400.0,1,1100.0,530.0,0.2,17.0
1183,25524000,295.41666666667,-0.0002480857839819,0.0002906789216111,-4.2593137629166e-05,-6.0699264186637e-07,8.0174008933544e-07,-1.9474744746907e-07,-16.442569544612,49.208540050203,0.83610487473209,0.82060185185185,50400.0,1,1100.0,530.0,0.2,17.0
1187,25610400,296.41666666667,-0.0002487337764145,0.0002914367986121,-4.2703022197624e-05,-6.1101250476212e-07,8.0733435225216e-07,-1.9632184749004e-07,-16.441793471994,49.302422477301,0.84505120620144,0.82337962962963,50400.0,1,1100.0,530.0,0.2,17.0
1191,25696800,297.41666666667,-0.0002493813692324,0.000292194252044,-4.2812882811611e-05,-6.1504947382672e-07,8.1295436879903e-07,-1.9790489497231e-07,-16.442578734292,49.387496911275,0.85013174701237,0.82615740740741,50400.0,1,1100.0,530.0,0.2,17.0
1195,25783200,298.41666666667,-0.0002500286872402,0.0002929514277294,-4.2922740489218e-05,-6.191037597832e-07,8.1860043434931e-07,-1.9949667456611e-07,-16.440213613951,49.489895895248,0.8628982097988,0.82893518518519,50400.0,1,1100.0,530.0,0.2,17.0
1199,25869600,299.41666666667,-0.0002506756078158,0.0002937081819625,-4.303257414673e-05,-6.2317523634007e-07,8.2427239281328e-07,-2.010971564732e-07,-16.440980052892,49.574878056506,0.8679734363129,0.83171296296296,50400.0,1,1100.0,530.0,0.2,17.0
1203,25956000,300.41666666667,-0.0002513221942026,0.000294464588574,-4.3142394371409e-05,-6.2726402889929e-07,8.2997042468788e-07,-2.0270639578859e-07,-16.440203422303,49.668532820273,0.87690449863469,0.83449074074074,50400.0,1,1100.0,530.0,0.2,17.0
1207,26042400,301.41666666667,-0.00025196850907,0.0002952207206794,-4.3252211609408e-05,-6.3137026572627e-07,8.3569471526974e-07,-2.0432444954347e-07,-16.437841177389,49.770816962984,0.88965665524884,0.83726851851852,50400.0,1,1100.0,530.0,0.2,17.0
1211,26128800,302.41666666667,-0.0002526144918936,0.0002959765072318,-4.3362015338185e-05,-6.3549390439569e-07,8.414452203859e-07,-2.0595131599021e-07,-16.437061967894,49.864394164952,0.89856839459263,0.8400462962963,50400.0,1,1100.0,530.0,0.2,17.0
1215,26215200,303.41666666667,-0.0002532600830034,0.000296731878263,-4.347179525963e-05,-6.3963490149575e-07,8.4722189431471e-07,-2.0758699281896e-07,-16.437857796365,49.949419258998,0.90370152438813,0.84282407407407,50400.0,1,1100.0,530.0,0.2,17.0
1219,26301600,304.41666666667,-0.0002539054029326,0.0002974869746928,-4.358157176015e-05,-6.4379346554111e-07,8.5302503015426e-07,-2.0923156461316e-07,-16.435480223999,50.051335498865,0.91636716492014,0.84560185185185,50400.0,1,1100.0,530.0,0.2,17.0
1223,26388000,305.41666666667,-0.000254550393458,0.0002982417280539,-4.3691334595949e-05,-6.4796955778833e-07,8.5885458895727e-07,-2.1088503116894e-07,-16.434687415646,50.144781025788,0.92527335693288,0.84837962962963,50400.0,1,1100.0,530.0,0.2,17.0
1227,26474400,306.41666666667,-0.0002551949967002,0.0002989960704036,-4.3801073703399e-05,-6.521631370275e-07,8.6471052801518e-07,-2.1254739098769e-07,-16.435591677532,50.229738436152,0.93033587370844,0.85115740740741,50400.0,1,1100.0,530.0,0.2,17.0
1231,26560800,307.41666666667,-0.0002558392741607,0.0002997500736593,-4.3910799498661e-05,-6.5637432826539e-07,8.7059302781122e-07,-2.1421869954584e-07,-16.434851236124,50.323275096151,0.93926434501953,0.85393518518519,50400.0,1,1100.0,530.0,0.2,17.0
1235,26647200,308.41666666667,-0.0002564832243913,0.000300503735898,-4.4020511506712e-05,-6.6060317084855e-07,8.7650215431677e-07,-2.1589898346823e-07,-16.434078424778,50.416500950603,0.94811472572435,0.85671296296296,50400.0,1,1100.0,530.0,0.2,17.0
1239,26733600,309.41666666667,-0.0002571268504066,0.0003012570604236,-4.4130210017005e-05,-6.6484970962686e-07,8.8243798035815e-07,-2.1758827073129e-07,-16.433228303553,50.510023385979,0.95715355838253,0.85949074074074,50400.0,1,1100.0,530.0,0.2,17.0
1243,26820000,310.41666666667,-0.0002577701481069,0.0003020100423377,-4.4239894230791e-05,-6.6911397944231e-07,8.884005660706e-07,-2.1928658662828e-07,-16.43245118212,50.602822878926,0.96586877820321,0.86226851851852,50400.0,1,1100.0,530.0,0.2,17.0
1247,26906400,311.41666666667,-0.0002584131802507,0.0003027627548964,-4.434957464567e-05,-6.7339611101057e-07,8.9439009987905e-07,-2.2099398886848e-07,-16.429983858254,50.704430467605,0.97857318529565,0.8650462962963,50400.0,1,1100.0,530.0,0.2,17.0
1251,26992800,312.41666666667,-0.0002590558296751,0.0003035150606109,-4.4459230935832e-05,-6.776959791183e-07,9.0040642632445e-07,-2.2271044720615e-07,-16.430825572298,50.789061132111,0.98363578279652,0.86782407407407,50400.0,1,1100.0,530.0,0.2,17.0
1255,27079200,313.41666666667,-0.0002596981572137,0.0003042670305887,-4.4568873375061e-05,-6.8201371027975e-07,9.0644972813339e-07,-2.2443601785364e-07,-16.430030458515,50.882255477212,0.99256037663801,0.87060185185185,50400.0,1,1100.0,530.0,0.2,17.0
1259,27165600,314.41666666667,-0.00026034016318,0.0003050186650594,-4.4678501879361e-05,-6.8634934514498e-07,9.1252007300229e-07,-2.2617072785731e-07,-16.429285760043,50.975236363158,1.0013662711444,0.87337962962963,50400.0,1,1100.0,530.0,0.2,17.0
1263,27252000,315.41666666667,-0.0002609818478791,0.0003057699641799,-4.4788116300821e-05,-6.9070292565603e-07,9.1861753025131e-07,-2.2791460459529e-07,-16.428477027373,51.068206989145,1.0102312291122,0.87615740740741,50400.0,1,1100.0,530.0,0.2,17.0
1267,27338400,316.41666666667,-0.0002616232102638,0.0003065209272974,-4.4897717033631e-05,-6.950744756713e-07,9.2474213989024e-07,-2.2966766421893e-07,-16.427668928785,51.161020989493,1.0190482911017,0.87893518518519,50400.0,1,1100.0,530.0,0.2,17.0
1271,27424800,317.41666666667,-0.0002622643163383,0.0003072716299322,-4.5007313593841e-05,-6.9946416245864e-07,9.3089414960658e-07,-2.3142998714794e-07,-16.425328654203,51.262643744181,1.031743346351,0.88171296296296,50400.0,1,1100.0,530.0,0.2,17.0
1275,27511200,318.41666666667,-0.0002629051035099,0.0003080219993399,-4.5116895829996e-05,-7.0387192229887e-07,9.3707348166812e-07,-2.3320155936925e-07,-16.424542162628,51.355469679574,1.0405805050377,0.88449074074074,50400.0,1,1100.0,530.0,0.2,17.0
1279,27597600,319.41666666667,-0.0002635455728347,0.0003087720365793,-4.5226463744604e-05,-7.0829779813458e-07,9.4328020675159e-07,-2.3498240861701e-07,-16.423763019243,51.448310411662,1.0494238034656,0.88726851851852,50400.0,1,1100.0,530.0,0.2,17.0
1283,27684000,320.41666666667,-0.0002641856659791,0.0003095216732284,-4.5336007249268e-05,-7.1274174512037e-07,9.4951427748888e-07,-2.3677253236851e-07,-16.424472296414,51.532778103648,1.0546154239199,0.8900462962963,50400.0,1,1100.0,530.0,0.2,17.0
1287,27770400,321.41666666667,-0.0002648254417799,0.0003102709779188,-4.5445536138917e-05,-7.1720388877412e-07,9.5577587523395e-07,-2.3857198645984e-07,-16.423754705924,51.625308136092,1.0633276236073,0.89282407407407,50400.0,1,1100.0,530.0,0.2,17.0
1291,27856800,322.41666666667,-0.0002654649009902,0.0003110199514167,-4.5555050426518e-05,-7.2168427053671e-07,9.6206506864787e-07,-2.4038079811116e-07,-16.422958030579,51.71786826031,1.0721356248717,0.89560185185185,50400.0,1,1100.0,530.0,0.2,17.0
1295,27943200,323.41666666667,-0.0002661040453962,0.0003117685956042,-4.5664550208055e-05,-7.2618293520238e-07,9.6838193139071e-07,-2.4219899618833e-07,-16.422176346425,51.810473664734,1.0809368139801,0.89837962962963,50400.0,1,1100.0,530.0,0.2,17.0
1299,28029600,324.41666666667,-0.0002667428774149,0.0003125169131894,-4.5774035774497e-05,-7.3069992724744e-07,9.7472653649906e-07,-2.4402660925162e-07,-16.42143131903,51.903196158033,1.0897752900439,0.90115740740741,50400.0,1,1100.0,530.0,0.2,17.0
1303,28116000,325.41666666667,-0.0002673813968012,0.0003132649036182,-4.588350681709e-05,-7.3523528571771e-07,9.8109894823364e-07,-2.4586366251593e-07,-16.420663578519,51.995794787502,1.0985985931531,0.90393518518519,50400.0,1,1100.0,530.0,0.2,17.0
1307,28202400,326.41666666667,-0.0002680196085345,0.0003140125724981,-4.5992963963591e-05,-7.3978906083354e-07,9.8749924785789e-07,-2.4771018702436e-07,-16.420033545127,52.088709179661,1.107443981233,0.90671296296296,50400.0,1,1100.0,530.0,0.2,17.0
1311,28288800,327.41666666667,-0.000268657506826,0.000314759913034,-4.6102406208036e-05,-7.4436128501134e-07,9.9392749248052e-07,-2.4956620746919e-07,-16.419185359877,52.181045623622,1.1162472683193,0.90949074074074,50400.0,1,1100.0,530.0,0.2,17.0
1315,28375200,328.41666666667,-0.000269295095789,0.000315506929659,-4.6211833869951e-05,-7.4895200484948e-07,1.0003837566058e-06,-2.5143175175637e-07,-16.418445153157,52.273632186912,1.1250854797287,0.91226851851852,50400.0,1,1100.0,530.0,0.2,17.0
1319,28461600,329.41666666667,-0.0002699323750609,0.0003162536218951,-4.6321246834207e-05,-7.5356126211619e-07,1.0068681105859e-06,-2.5330684846975e-07,-16.417667032517,52.36608086935,1.1339086048701,0.9150462962963,50400.0,1,1100.0,530.0,0.2,17.0
1323,28548000,330.41666666667,-0.0002705693437405,0.0003169999883982,-4.643064465769e-05,-7.5818909544765e-07,1.0133806182885e-06,-2.551915228408e-07,-16.416889253737,52.45829558619,1.1426608843234,0.91782407407407,50400.0,1,1100.0,530.0,0.2,17.0
1327,28634400,331.41666666667,-0.0002712060608072,0.0003177460981827,-4.65400373755e-05,-7.6283563654792e-07,1.0199214710064e-06,-2.5708583445848e-07,-16.414421923181,52.558957516386,1.1552594941668,0.92060185185185,50400.0,1,1100.0,530.0,0.2,17.0
1331,28720800,332.41666666667,-0.0002718424122329,0.0003184918173255,-4.6649405092591e-05,-7.675007549247e-07,1.0264905053498e-06,-2.589897504251e-07,-16.41527858273,52.642916619161,1.1603021156971,0.92337962962963,50400.0,1,1100.0,530.0,0.2,17.0
1335,28807200,333.41666666667,-0.0002724784540471,0.0003192372114287,-4.6758757381535e-05,-7.7218457411464e-07,1.0330879003921e-06,-2.6090332627749e-07,-16.414447320436,52.734978026624,1.1690907441978,0.92615740740741,50400.0,1,1100.0,530.0,0.2,17.0
1339,28893600,334.41666666667,-0.0002731141898472,0.0003199822845557,-4.6868094708556e-05,-7.768871412127e-07,1.0397137330376e-06,-2.6282659182494e-07,-16.413735909597,52.827186478974,1.1778157963587,0.92893518518519,50400.0,1,1100.0,530.0,0.2,17.0
1343,28980000,335.41666666667,-0.0002737496192055,0.0003207270359758,-4.6977416770302e-05,-7.8160849689205e-07,1.0463680708595e-06,-2.6475957396742e-07,-16.412906671206,52.919340238665,1.1866425685456,0.93171296296296,50400.0,1,1100.0,530.0,0.2,17.0
1347,29066400,336.41666666667,-0.0002743847428114,0.000321471466343,-4.7086723531596e-05,-7.8634868314191e-07,1.0530509833809e-06,-2.6670230023902e-07,-16.412141991914,53.011379973007,1.1953885725056,0.93449074074074,50400.0,1,1100.0,530.0,0.2,17.0
1351,29152800,337.41666666667,-0.000275019560768,0.0003222155755444,-4.7196014776379e-05,-7.9110774216262e-07,1.0597625405742e-06,-2.6865479841156e-07,-16.411340615743,53.103362720582,1.2041535483028,0.93726851851852,50400.0,1,1100.0,530.0,0.2,17.0
1355,29239200,338.41666666667,-0.0002756540764172,0.0003229593673265,-4.7305290909224e-05,-7.9588572028276e-07,1.0665028177563e-06,-2.7061709747356e-07,-16.410584393601,53.195585014984,1.212983848147,0.9400462962963,50400.0,1,1100.0,530.0,0.2,17.0
1359,29325600,339.41666666667,-0.0002762883474246,0.0003237029091075,-4.7414561682888e-05,-8.0068274800194e-07,1.0732720041339e-06,-2.7258925613193e-07,-16.408217298969,53.296011657915,1.2255226225199,0.94282407407407,50400.0,1,1100.0,530.0,0.2,17.0
1363,29412000,340.41666666667,-0.0002769222562498,0.0003244460628784,-4.7523806628573e-05,-8.0549868540538e-07,1.0800699233794e-06,-2.7457123797401e-07,-16.409035938924,53.379438578577,1.2304938352657,0.94560185185185,50400.0,1,1100.0,530.0,0.2,17.0
1367,29498400,341.41666666667,-0.0002775559230175,0.0003251889693338,-4.763304631629e-05,-8.1033376020845e-07,1.0868968962082e-06,-2.7656313599975e-07,-16.406675305736,53.479989297922,1.2430934818584,0.94837962962963,50400.0,1,1100.0,530.0,0.2,17.0
1371,29584800,342.41666666667,-0.0002781892272098,0.0003259314870232,-4.7742259813465e-05,-8.1518782522254e-07,1.0937527362051e-06,-2.7856491098255e-07,-16.407483219934,53.563142327636,1.2479956564563,0.95115740740741,50400.0,1,1100.0,530.0,0.2,17.0
1375,29671200,343.41666666667,-0.0002788222896862,0.0003266737574889,-4.7851467802682e-05,-8.2006111084928e-07,1.1006377678341e-06,-2.805766569848e-07,-16.405112689253,53.663524606349,1.2605692811626,0.95393518518519,50400.0,1,1100.0,530.0,0.2,17.0
1379,29757600,344.41666666667,-0.0002794549941325,0.0003274156440522,-4.7960649919692e-05,-8.2495347750148e-07,1.1075518152394e-06,-2.825983377379e-07,-16.405935823749,53.746963351466,1.2655832206252,0.95671296296296,50400.0,1,1100.0,530.0,0.2,17.0
1383,29844000,345.41666666667,-0.0002800874008048,0.0003281572172897,-4.8069816484951e-05,-8.2986505839233e-07,1.1144950709546e-06,-2.8463001256227e-07,-16.405287705154,53.838835598998,1.2743033950949,0.95949074074074,50400.0,1,1100.0,530.0,0.2,17.0
1387,29930400,346.41666666667,-0.0002807195095872,0.0003288984768472,-4.8178967259948e-05,-8.3479589672016e-07,1.1214676068365e-06,-2.8667171011635e-07,-16.404528036297,53.930666752888,1.283083387574,0.96226851851852,50400.0,1,1100.0,530.0,0.2,17.0
1391,30016800,347.41666666667,-0.0002813513192044,0.0003296394210682,-4.8288101863827e-05,-8.3974603107606e-07,1.1284694876329e-06,-2.887234565568e-07,-16.403698159007,54.022305371973,1.2918715694631,0.9650462962963,50400.0,1,1100.0,530.0,0.2,17.0
1395,30103200,348.41666666667,-0.0002819828308724,0.0003303800512379,-4.8397220365587e-05,-8.447155043212e-07,1.1355007841393e-06,-2.907852798181e-07,-16.40293953393,54.113898498468,1.3005945667383,0.96782407407407,50400.0,1,1100.0,530.0,0.2,17.0
1399,30189600,349.41666666667,-0.000282614043003,0.0003311203653848,-4.8506322381811e-05,-8.4970435529322e-07,1.1425615619426e-06,-2.928572066494e-07,-16.402161046167,54.205214683884,1.3092293137537,0.97060185185185,50400.0,1,1100.0,530.0,0.2,17.0
1403,30276000,350.41666666667,-0.0002832449606295,0.0003318603691488,-4.8615408519328e-05,-8.5471263311697e-07,1.1496518998832e-06,-2.9493926676623e-07,-16.401429853255,54.296983145363,1.3180260629765,0.97337962962963,50400.0,1,1100.0,530.0,0.2,17.0
1407,30362400,351.41666666667,-0.0002838755813913,0.0003326000596158,-4.8724478224511e-05,-8.5974037602626e-07,1.1567718628472e-06,-2.9703148682096e-07,-16.400646101531,54.388409663645,1.3267419627457,0.97615740740741,50400.0,1,1100.0,530.0,0.2,17.0
1411,30448800,352.41666666667,-0.0002845059041913,0.0003333394353054,-4.8833531114062e-05,-8.6478762444145e-07,1.1639215185948e-06,-2.9913389415339e-07,-16.399813970076,54.479642076947,1.3354336834677,0.97893518518519,50400.0,1,1100.0,530.0,0.2,17.0
1415,30535200,353.41666666667,-0.0002851359313435,0.0003340784988249,-4.8942567481386e-05,-8.698544221594e-07,1.1711009388796e-06,-3.0124651672024e-07,-16.39905566848,54.570981727155,1.3441234097336,0.98171296296296,50400.0,1,1100.0,530.0,0.2,17.0
1419,30621600,354.41666666667,-0.0002857656635026,0.0003348172507563,-4.905158725368e-05,-8.7494081128511e-07,1.1783101933371e-06,-3.0336938205197e-07,-16.398256675088,54.662320096102,1.3528617166096,0.98449074074074,50400.0,1,1100.0,530.0,0.2,17.0
1423,30708000,355.41666666667,-0.0002863951036056,0.0003355556942974,-4.9160590691734e-05,-8.800468397006e-07,1.1855493600736e-06,-3.0550252037303e-07,-16.397525864974,54.753835382264,1.3616147148229,0.98726851851852,50400.0,1,1100.0,530.0,0.2,17.0
1427,30794400,356.41666666667,-0.0002870242495401,0.0003362938268716,-4.9269577331537e-05,-8.8517254430447e-07,1.1928185016972e-06,-3.0764595739278e-07,-16.396750118624,54.845024821031,1.3702963291734,0.9900462962963,50400.0,1,1100.0,530.0,0.2,17.0
1431,30880800,357.41666666667,-0.0002876531032132,0.0003370316504775,-4.937854726427e-05,-8.9031797092416e-07,1.200117693271e-06,-3.0979972234679e-07,-16.395950087751,54.936375420334,1.3790692189018,0.99282407407407,50400.0,1,1100.0,530.0,0.2,17.0
1435,30967200,358.41666666667,-0.0002882816614149,0.0003377691613828,-4.9487499967906e-05,-8.9548315292153e-07,1.2074469925024e-06,-3.1196383958085e-07,-16.395194379431,55.027195814335,1.387615367517,0.99560185185185,50400.0,1,1100.0,530.0,0.2,17.0
1439,31053600,359.41666666667,-0.0002889099301925,0.0003385063662507,-4.9596436058146e-05,-9.0066814487087e-07,1.2148064863138e-06,-3.1413834144295e-07,-16.394422016116,55.118649357712,1.3964430252816,0.99837962962963,50400.0,1,1100.0,530.0,0.2,17.0
1443,31140000,360.41666666667,-0.0002895379082328,0.0003392432634936,-4.9705355260772e-05,-9.0587298424685e-07,1.2221962380594e-06,-3.1632325381255e-07,-16.393665714174,55.20982766095,1.4051619491742,1.0011574074074,50400.0,1,1100.0,530.0,0.2,17.0
1447,31226400,361.41666666667,-0.000290165593626,0.0003399798506962,-4.9814257070231e-05,-9.1109771058368e-07,1.229616314712e-06,-3.185186041283e-07,-16.392852007119,55.300705361391,1.413807421509,1.0039351851852,50400.0,1,1100.0,530.0,0.2,17.0
1450,31248000,361.66666666667,-0.000290165593626,0.0003399798506962,-4.9814257070231e-05,-9.1109771058368e-07,1.229616314712e-06,-3.185186041283e-07,0.48237850036159,76.506530513251,43.332338194957,1.0046296296296,90000.0,3,25.0,25.0,0.1,0.1
1454,31348800,362.83333333333,-0.0002902076813264,0.0003400289906995,-4.9821309373117e-05,-9.1143419810112e-07,1.2300885076028e-06,-3.1865430950173e-07,-16.393954587395,55.314401244701,1.4096091555912,1.0078703703704,50400.0,1,1100.0,530.0,0.2,17.0
1458,31435200,363.83333333333,-0.0002908350768226,0.0003407652735729,-4.9930196750355e-05,-9.1668022381574e-07,1.2375410583495e-06,-3.2086083453379e-07,-16.390477517427,55.406096075499,1.426795580657,1.0106481481481,50400.0,1,1100.0,530.0,0.2,17.0
1462,31521600,364.83333333333,-0.0002914621828854,0.000341501249835,-5.0039066949538e-05,-9.2194622807817e-07,1.2450240844743e-06,-3.2307785639609e-07,-16.389711844474,55.497083822728,1.435479677306,1.0134259259259,50400.0,1,1100.0,530.0,0.2,17.0
1466,31608000,365.83333333333,-0.0002920889403303,0.000342236849937,-5.01479096067e-05,-9.2723215229501e-07,1.2525375188928e-06,-3.2530536659783e-07,-16.390524440598,55.579416162978,1.4403460471957,1.0162037037037,50400.0,1,1100.0,530.0,0.2,17.0
1470,31694400,366.83333333333,-0.0002927154160961,0.000342972152155,-5.0256736058906e-05,-9.3253814943285e-07,1.2600815820629e-06,-3.275434326301e-07,-16.389937435729,55.670936665083,1.4491210482481,1.0189814814815,50400.0,1,1100.0,530.0,0.2,17.0
1474,31780800,367.83333333333,-0.0002933416027686,0.0003437071477331,-5.0365544964532e-05,-9.378642485006e-07,1.2676563262811e-06,-3.2979207778048e-07,-16.389084965207,55.761710405593,1.4578303172668,1.0217592592593,50400.0,1,1100.0,530.0,0.2,17.0
1478,31867200,368.83333333333,-0.000293967502772,0.0003444418393744,-5.0474336602334e-05,-9.4321049468588e-07,1.2752618257035e-06,-3.3205133101758e-07,-16.388355206204,55.852551777264,1.4664726323024,1.024537037037,50400.0,1,1100.0,530.0,0.2,17.0
1482,31953600,369.83333333333,-0.0002945931168372,0.0003451762277775,-5.0583110940253e-05,-9.4857692955338e-07,1.2828981490812e-06,-3.343212195278e-07,-16.387636523712,55.943369073051,1.4751265505365,1.0273148148148,50400.0,1,1100.0,530.0,0.2,17.0
1486,32040000,370.83333333333,-0.0002952184434885,0.0003459103110182,-5.0691867529711e-05,-9.539635942339e-07,1.2905653656675e-06,-3.3660177143356e-07,-16.386859497953,56.033987909948,1.4837481256254,1.0300925925926,50400.0,1,1100.0,530.0,0.2,17.0
1490,32126400,371.83333333333,-0.0002958434851371,0.0003466440917442,-5.0800606607089e-05,-9.5937053356196e-07,1.2982635486861e-06,-3.3889301512412e-07,-16.386074661265,56.124792840469,1.4924728106358,1.0328703703704,50400.0,1,1100.0,530.0,0.2,17.0
1494,32212800,372.83333333333,-0.0002964682379512,0.0003473775653885,-5.0909327437304e-05,-9.6479778259352e-07,1.305992758824e-06,-3.411949762305e-07,-16.385253731873,56.215065051885,1.5010261912457,1.0356481481481,50400.0,1,1100.0,530.0,0.2,17.0
1498,32299200,373.83333333333,-0.0002970927649331,0.0003481108056258,-5.1018040692757e-05,-9.7024549107346e-07,1.3137532122623e-06,-3.4350772118887e-07,-16.382863210301,56.314278594256,1.5135324903464,1.0384259259259,50400.0,1,1100.0,530.0,0.2,17.0
1502,32385600,374.83333333333,-0.0002977170071545,0.00034884374311,-5.1126735955476e-05,-9.757136013259e-07,1.3215448433131e-06,-3.4583124198718e-07,-16.382090010495,56.404824794959,1.5221838580531,1.0412037037037,50400.0,1,1100.0,530.0,0.2,17.0
1506,32472000,375.83333333333,-0.0002983409081182,0.000349576311395,-5.1235403276876e-05,-9.8120205792554e-07,1.3293675889438e-06,-3.4816553101821e-07,-16.382891346727,56.487076158443,1.5271506461939,1.0439814814815,50400.0,1,1100.0,530.0,0.2,17.0
1510,32558400,376.83333333333,-0.000298964523457,0.0003503085757001,-5.1344052243134e-05,-9.8671099674197e-07,1.3372216472455e-06,-3.5051065050352e-07,-16.382170534334,56.577284148445,1.5356534413723,1.0467592592593,50400.0,1,1100.0,530.0,0.2,17.0
1514,32644800,377.83333333333,-0.0002995878560282,0.0003510405392041,-5.1452683175933e-05,-9.9224046367808e-07,1.3451070931116e-06,-3.5286662943348e-07,-16.381423216385,56.667719821378,1.5442766038553,1.049537037037,50400.0,1,1100.0,530.0,0.2,17.0
1518,32731200,378.83333333333,-0.0003002109070987,0.000351772203226,-5.1561296127379e-05,-9.9779050183078e-07,1.3530239975309e-06,-3.5523349570008e-07,-16.380681888647,56.758235072684,1.5529393108187,1.0523148148148,50400.0,1,1100.0,530.0,0.2,17.0
1522,32817600,379.83333333333,-0.0003008336749504,0.0003525035655649,-5.1669890614496e-05,-1.0033611511789e-06,1.3609724280107e-06,-3.5761127683184e-07,-16.379891152635,56.848488811427,1.5615567934723,1.0550925925926,50400.0,1,1100.0,530.0,0.2,17.0
1526,32904000,380.83333333333,-0.000301456164195,0.0003532346315196,-5.1778467324565e-05,-1.0089524595272e-06,1.3689524615845e-06,-3.6000000205735e-07,-16.379086300262,56.939237771652,1.5703815401139,1.0578703703704,50400.0,1,1100.0,530.0,0.2,17.0
1530,32990400,381.83333333333,-0.0003020783685299,0.0003539653935216,-5.1887024991674e-05,-1.0145644598534e-06,1.3769641569173e-06,-3.6239969706388e-07,-16.378336679236,57.029047515297,1.5788215485643,1.0606481481481,50400.0,1,1100.0,530.0,0.2,17.0
1534,33076800,382.83333333333,-0.0003027002950316,0.0003546958597109,-5.1995564679274e-05,-1.0201972046753e-06,1.3850075973883e-06,-3.6481039271299e-07,-16.377576737001,57.119652307519,1.587579303602,1.0634259259259,50400.0,1,1100.0,530.0,0.2,17.0
1538,33163200,383.83333333333,-0.0003033219419097,0.0003554260277952,-5.2104085885576e-05,-1.0258507334131e-06,1.3930828496581e-06,-3.6723211624493e-07,-16.376826904907,57.209919639951,1.5962218270507,1.0662037037037,50400.0,1,1100.0,530.0,0.2,17.0
1542,33249600,384.83333333333,-0.0003039433071022,0.0003561558953207,-5.2212588218539e-05,-1.031525083347e-06,1.4011899773589e-06,-3.6966489401191e-07,-16.376088512639,57.299846597087,1.6047250173258,1.0689814814815,50400.0,1,1100.0,530.0,0.2,17.0
1546,33336000,385.83333333333,-0.0003045644520327,0.0003568855341223,-5.2321082089529e-05,-1.0372204053245e-06,1.4093291986294e-06,-3.7210879330492e-07,-16.373743225829,57.398571115748,1.6171619866351,1.0717592592593,50400.0,1,1100.0,530.0,0.2,17.0
1550,33422400,386.83333333333,-0.0003051852632809,0.0003576148108196,-5.2429547538745e-05,-1.0429365420664e-06,1.4175003116046e-06,-3.7456376953825e-07,-16.3746732221,57.480485535429,1.622042304743,1.074537037037,50400.0,1,1100.0,530.0,0.2,17.0
1554,33508800,387.83333333333,-0.0003058057944419,0.0003583437883773,-5.2537993935433e-05,-1.0486736276566e-06,1.4257035116253e-06,-3.7702988396869e-07,-16.373898233816,57.570404090793,1.6306095469291,1.0773148148148,50400.0,1,1100.0,530.0,0.2,17.0
1558,33595200,388.83333333333,-0.0003064260481519,0.0003590724697109,-5.2646421559044e-05,-1.0544317102066e-06,1.4339388777575e-06,-3.7950716755093e-07,-16.373129338728,57.660511041813,1.6392627982028,1.0800925925926,50400.0,1,1100.0,530.0,0.2,17.0
1562,33681600,389.83333333333,-0.0003070460242655,0.0003598008543564,-5.2754830090874e-05,-1.0602108297678e-06,1.4422064758958e-06,-3.8199564612807e-07,-16.372355318578,57.750515733587,1.6478981902034,1.0828703703704,50400.0,1,1100.0,530.0,0.2,17.0
1566,33768000,390.83333333333,-0.0003076657239448,0.0003605289437235,-5.2863219778677e-05,-1.066011030302e-06,1.4505063798407e-06,-3.844953495387e-07,-16.37163544239,57.840503319162,1.6564884116317,1.0856481481481,50400.0,1,1100.0,530.0,0.2,17.0
1570,33854400,391.83333333333,-0.0003082851467886,0.0003612567369981,-5.2971590209458e-05,-1.0718323526418e-06,1.4588386567681e-06,-3.8700630412633e-07,-16.370911209422,57.9303549304,1.6650575614437,1.0884259259259,50400.0,1,1100.0,530.0,0.2,17.0
1574,33940800,392.83333333333,-0.0003089042913928,0.0003619842326446,-5.3079941251737e-05,-1.0776748357894e-06,1.4672033737673e-06,-3.8952853797791e-07,-16.370128850012,58.020016907636,1.6735919099371,1.0912037037037,50400.0,1,1100.0,530.0,0.2,17.0
1578,34027200,393.83333333333,-0.0003095231611018,0.0003627114341306,-5.318827302874e-05,-1.0835385287699e-06,1.4756006092838e-06,-3.9206208051391e-07,-16.369382361789,58.109952295613,1.6822265464266,1.0939814814815,50400.0,1,1100.0,530.0,0.2,17.0
1582,34113600,394.83333333333,-0.0003101417519824,0.0003634383368712,-5.3296584888785e-05,-1.0894234656983e-06,1.4840304231277e-06,-3.9460695742943e-07,-16.368525853124,58.199432192866,1.6907822869008,1.0967592592593,50400.0,1,1100.0,530.0,0.2,17.0
1586,34200000,395.83333333333,-0.0003107600687196,0.0003641649461952,-5.3404877475594e-05,-1.0953296961758e-06,1.4924928953489e-06,-3.9716319917308e-07,-16.367766217533,58.289295497033,1.699417067332,1.099537037037,50400.0,1,1100.0,530.0,0.2,17.0
1590,34286400,396.83333333333,-0.0003113781096467,0.000364891260117,-5.351315047033e-05,-1.1012572586498e-06,1.5009880915119e-06,-3.9973083286207e-07,-16.367012805405,58.378879537384,1.7079655814087,1.1023148148148,50400.0,1,1100.0,530.0,0.2,17.0
1594,34372800,397.83333333333,-0.0003119958755873,0.0003656172792804,-5.3621403693099e-05,-1.1072061965556e-06,1.509516082745e-06,-4.0230988618939e-07,-16.366264480951,58.468434214244,1.7164962614079,1.1050925925926,50400.0,1,1100.0,530.0,0.2,17.0
1598,34459200,398.83333333333,-0.0003126133678973,0.0003663430051957,-5.3729637298416e-05,-1.1131765536925e-06,1.518076941699e-06,-4.0490038800646e-07,-16.36553449184,58.558065770984,1.7250672381646,1.1078703703704,50400.0,1,1100.0,530.0,0.2,17.0
1602,34545600,399.83333333333,-0.0003132305864247,0.0003670684374849,-5.3837851060153e-05,-1.1191683729066e-06,1.5266707397566e-06,-4.0750236685008e-07,-16.364741385315,58.647640061317,1.7336808892135,1.1106481481481,50400.0,1,1100.0,530.0,0.2,17.0
1606,34632000,400.83333333333,-0.0003138475307494,0.000367793575618,-5.3946044868676e-05,-1.1251816939945e-06,1.5352975438522e-06,-4.1011584985775e-07,-16.364005099381,58.737039161981,1.7421810775755,1.1134259259259,50400.0,1,1100.0,530.0,0.2,17.0
1610,34718400,401.83333333333,-0.0003144642035102,0.000368518422481,-5.4054218970765e-05,-1.1312165637943e-06,1.5439574303902e-06,-4.1274086659594e-07,-16.363241475565,58.826688155174,1.7508181236848,1.1162037037037,50400.0,1,1100.0,530.0,0.2,17.0
1614,34804800,402.83333333333,-0.0003150806037727,0.0003692429769019,-5.4162373129214e-05,-1.1372730211478e-06,1.5526504647831e-06,-4.1537744363527e-07,-16.362491703699,58.916140850533,1.7593843797011,1.1189814814815,50400.0,1,1100.0,530.0,0.2,17.0
1618,34891200,403.83333333333,-0.0003156967331599,0.0003699672405388,-5.4270507378865e-05,-1.1433511131105e-06,1.561376724528e-06,-4.1802561141755e-07,-16.361772234047,59.005642617973,1.7679527249992,1.1217592592593,50400.0,1,1100.0,530.0,0.2,17.0
1622,34977600,404.83333333333,-0.0003163125897152,0.0003706912110448,-5.4378621329656e-05,-1.149450876446e-06,1.5701362722462e-06,-4.2068539580016e-07,-16.360991207008,59.094904049315,1.7764873275005,1.124537037037,50400.0,1,1100.0,530.0,0.2,17.0
1626,35064000,405.83333333333,-0.0003169281741308,0.0003714148898694,-5.4486715738528e-05,-1.1555723329793e-06,1.5789291441549e-06,-4.2335681117559e-07,-16.360277751433,59.184216694622,1.7850097950995,1.1273148148148,50400.0,1,1100.0,530.0,0.2,17.0
1630,35150400,406.83333333333,-0.0003175434905117,0.0003721382800762,-5.4594789564491e-05,-1.1617155733316e-06,1.5877554886608e-06,-4.2603991532921e-07,-16.359553842675,59.273697497765,1.7936129845412,1.1300925925926,50400.0,1,1100.0,530.0,0.2,17.0
1634,35236800,407.83333333333,-0.0003181585373174,0.0003728613805001,-5.4702843182739e-05,-1.1678806173823e-06,1.5966153398537e-06,-4.2873472247144e-07,-16.358820523191,59.363049052878,1.802184657559,1.1328703703704,50400.0,1,1100.0,530.0,0.2,17.0
1638,35323200,408.83333333333,-0.0003187733146576,0.0003735841912118,-5.4810876554185e-05,-1.1740675039928e-06,1.605508762751e-06,-4.3144125875819e-07,-16.358108325244,59.452309675294,1.8107290492055,1.1356481481481,50400.0,1,1100.0,530.0,0.2,17.0
1642,35409600,409.83333333333,-0.0003193878180488,0.0003743067067951,-5.4918888746289e-05,-1.180276270027e-06,1.614435821477e-06,-4.3415955144997e-07,-16.357279577546,59.541048432687,1.8191553469734,1.1384259259259,50400.0,1,1100.0,530.0,0.2,17.0
1646,35496000,410.83333333333,-0.0003200020577009,0.0003750289389763,-5.5026881275393e-05,-1.1865069747631e-06,1.6233966085916e-06,-4.3688963382848e-07,-16.356603429973,59.630806590851,1.8278868470215,1.1412037037037,50400.0,1,1100.0,530.0,0.2,17.0
1650,35582400,411.83333333333,-0.0003206160283232,0.0003757508815474,-5.5134853224167e-05,-1.1927596506847e-06,1.6323911821499e-06,-4.396315314652e-07,-16.355854549923,59.719896826252,1.8364312149548,1.1439814814815,50400.0,1,1100.0,530.0,0.2,17.0
1654,35668800,412.83333333333,-0.0003212297298897,0.0003764725342452,-5.52428043555e-05,-1.1990343390937e-06,1.6414196103384e-06,-4.4238527124477e-07,-16.355140028595,59.808855542614,1.8448909422188,1.1467592592593,50400.0,1,1100.0,530.0,0.2,17.0
1658,35755200,413.83333333333,-0.0003218431649883,0.0003771939000828,-5.5350735094505e-05,-1.2053310868759e-06,1.6504819706212e-06,-4.4515088374534e-07,-16.354383783546,59.898126036089,1.8535227862257,1.149537037037,50400.0,1,1100.0,530.0,0.2,17.0
1662,35841600,414.83333333333,-0.0003224563287296,0.0003779149730605,-5.545864433099e-05,-1.2116499257046e-06,1.6595783178852e-06,-4.4792839218055e-07,-16.353580648382,59.986724693602,1.8619661026884,1.1523148148148,50400.0,1,1100.0,530.0,0.2,17.0
1666,35928000,415.83333333333,-0.0003230692796614,0.0003786358218944,-5.5566542233031e-05,-1.2179910117139e-06,1.6687088796838e-06,-4.5071786796988e-07,-16.351145021258,60.083921233779,1.8742513431136,1.1550925925926,50400.0,1,1100.0,530.0,0.2,17.0
1670,36014400,416.83333333333,-0.0003236819059773,0.0003793563150513,-5.567440907395e-05,-1.2243541714709e-06,1.6778734302589e-06,-4.5351925878795e-07,-16.352016591857,60.16431575281,1.8789665291616,1.1578703703704,50400.0,1,1100.0,530.0,0.2,17.0
1674,36100800,417.83333333333,-0.0003242942640235,0.0003800765186614,-5.5782254637899e-05,-1.2307395545279e-06,1.6870721871998e-06,-4.5633263267194e-07,-16.351263183912,60.253046984203,1.8874495980098,1.1606481481481,50400.0,1,1100.0,530.0,0.2,17.0
1678,36187200,418.83333333333,-0.000324906357076,0.0003807964364175,-5.5890079341447e-05,-1.2371472081354e-06,1.6963052276239e-06,-4.5915801948852e-07,-16.350519321167,60.342036965003,1.8960254439909,1.1634259259259,50400.0,1,1100.0,530.0,0.2,17.0
1682,36273600,419.83333333333,-0.0003255181833245,0.0003815160660958,-5.5997882771287e-05,-1.2435771697945e-06,1.7055726152988e-06,-4.619954455043e-07,-16.349781727066,60.430728979553,1.9045017984183,1.1662037037037,50400.0,1,1100.0,530.0,0.2,17.0
1686,36360000,420.83333333333,-0.0003261297430321,0.0003822354078388,-5.6105664806755e-05,-1.2500294829269e-06,1.7148744226051e-06,-4.6484493967815e-07,-16.349029655637,60.519375466743,1.9129804925197,1.1689814814815,50400.0,1,1100.0,530.0,0.2,17.0
1690,36446400,421.83333333333,-0.0003267410375204,0.000382954463073,-5.6213425552577e-05,-1.2565041909038e-06,1.7242107210663e-06,-4.6770653016255e-07,-16.348268952377,60.608107609997,1.9215200677812,1.1717592592593,50400.0,1,1100.0,530.0,0.2,17.0
1694,36532800,422.83333333333,-0.0003273520672382,0.0003836732321917,-5.6321164953449e-05,-1.2630013372262e-06,1.7335815831588e-06,-4.7058024593256e-07,-16.347554311076,60.696762206918,1.9299948546195,1.174537037037,50400.0,1,1100.0,530.0,0.2,17.0
1698,36619200,423.83333333333,-0.0003279628322978,0.0003843917152226,-5.6428882924788e-05,-1.2695209630561e-06,1.7429870775622e-06,-4.734661145061e-07,-16.346796618249,60.785401957632,1.9385132285509,1.1773148148148,50400.0,1,1100.0,530.0,0.2,17.0
1702,36705600,424.83333333333,-0.0003285733322601,0.000385109911504,-5.6536579243899e-05,-1.2760631098989e-06,1.75242727384e-06,-4.7636416394109e-07,-16.346044675765,60.873899969715,1.9469893162446,1.1800925925926,50400.0,1,1100.0,530.0,0.2,17.0
1706,36792000,425.83333333333,-0.0003291835699488,0.0003858278241776,-5.6644254228858e-05,-1.2826278247225e-06,1.7619022486013e-06,-4.7927442387882e-07,-16.345318988304,60.962631166517,1.9555508519562,1.1828703703704,50400.0,1,1100.0,530.0,0.2,17.0
1710,36878400,426.83333333333,-0.0003297935440774,0.0003865454516701,-5.6751907592707e-05,-1.2892151465148e-06,1.7714120681484e-06,-4.8219692163359e-07,-16.344603496547,61.051109802512,1.9640040670691,1.1856481481481,50400.0,1,1100.0,530.0,0.2,17.0
1714,36964800,427.83333333333,-0.000330403254228,0.0003872627941416,-5.6859539913575e-05,-1.2958250935354e-06,1.7809567632345e-06,-4.8513166969906e-07,-16.34383395063,61.139653014179,1.9725530887641,1.1884259259259,50400.0,1,1100.0,530.0,0.2,17.0
1718,37051200,428.83333333333,-0.0003310127002899,0.0003879798505701,-5.6967150280211e-05,-1.302457729966e-06,1.7905364410764e-06,-4.8807871111047e-07,-16.34309200483,61.227959083198,1.9809905865748,1.1912037037037,50400.0,1,1100.0,530.0,0.2,17.0
1722,37137600,429.83333333333,-0.0003316219423219,0.0003886966906423,-5.7074748320377e-05,-1.309113239876e-06,1.8001513735092e-06,-4.910381336332e-07,-16.340700893885,61.324953863173,1.9933469056043,1.1939814814815,50400.0,1,1100.0,530.0,0.2,17.0
1726,37224000,430.83333333333,-0.000332230867607,0.0003894131823303,-5.7182314723289e-05,-1.3157914197802e-06,1.8098012862167e-06,-4.9400986643645e-07,-16.341660201367,61.405045676509,1.9980502287863,1.1967592592593,50400.0,1,1100.0,530.0,0.2,17.0
1730,37310400,431.83333333333,-0.0003328395298982,0.0003901293888865,-5.7289858988332e-05,-1.3224924157784e-06,1.8194863924063e-06,-4.9699397662788e-07,-16.340886494148,61.493300920591,2.0065494444252,1.199537037037,50400.0,1,1100.0,530.0,0.2,17.0
1734,37396800,432.83333333333,-0.0003334479296543,0.0003908453107174,-5.739738106315e-05,-1.3292162722044e-06,1.8292067663086e-06,-4.9999049410427e-07,-16.340203272924,61.581394646048,2.0149055968691,1.2023148148148,50400.0,1,1100.0,530.0,0.2,17.0
1738,37483200,433.83333333333,-0.0003340560676238,0.0003915609485818,-5.7504880957916e-05,-1.335963030483e-06,1.838962476377e-06,-5.0299944589403e-07,-16.339443763189,61.669595046786,2.023387956947,1.2050925925926,50400.0,1,1100.0,530.0,0.2,17.0
1742,37569600,434.83333333333,-0.0003346639447906,0.0003922763034994,-5.7612358708736e-05,-1.3427327352728e-06,1.8487535968622e-06,-5.0602086158944e-07,-16.338719344666,61.757790778999,2.0318445249715,1.2078703703704,50400.0,1,1100.0,530.0,0.2,17.0
1746,37656000,435.83333333333,-0.0003352715624615,0.0003929913768786,-5.7719814417155e-05,-1.3495254303716e-06,1.8585801999645e-06,-5.0905476959287e-07,-16.337984258943,61.846070780876,2.0403591110465,1.2106481481481,50400.0,1,1100.0,530.0,0.2,17.0
1750,37742400,436.83333333333,-0.0003358789161584,0.000393706163431,-5.7827247272654e-05,-1.3563411474538e-06,1.8684423416742e-06,-5.1210119422042e-07,-16.337129067373,61.933861998213,2.0487925365005,1.2134259259259,50400.0,1,1100.0,530.0,0.2,17.0
1754,37828800,437.83333333333,-0.0003364860672912,0.0003944207350513,-5.7934667760072e-05,-1.363180056365e-06,1.8783402684609e-06,-5.1516021209592e-07,-16.33479396346,62.030472966502,2.0610609366185,1.2162037037037,50400.0,1,1100.0,530.0,0.2,17.0
1758,37915200,438.83333333333,-0.0003370929589126,0.0003951350246675,-5.8042065754844e-05,-1.3700420837508e-06,1.8882738916441e-06,-5.1823180789335e-07,-16.334067797955,62.118524555841,2.069515308961,1.2189814814815,50400.0,1,1100.0,530.0,0.2,17.0
1762,38001600,439.83333333333,-0.0003376995330732,0.0003958489640908,-5.8149431017629e-05,-1.3769271530688e-06,1.8982431183967e-06,-5.2131596532787e-07,-16.334935724109,62.197934816036,2.0741416811191,1.2217592592593,50400.0,1,1100.0,530.0,0.2,17.0
1766,38088000,440.83333333333,-0.0003383058476057,0.0003965626212287,-5.8256773623002e-05,-1.383835421108e-06,1.9082481761513e-06,-5.2441275504322e-07,-16.334150907298,62.285897382255,2.0826408466532,1.224537037037,50400.0,1,1100.0,530.0,0.2,17.0
1770,38174400,441.83333333333,-0.000338911905847,0.0003972759998538,-5.8364094006772e-05,-1.390766937305e-06,1.9182891456959e-06,-5.2752220839085e-07,-16.333471915331,62.374042651598,2.0911260392323,1.2273148148148,50400.0,1,1100.0,530.0,0.2,17.0
1774,38260800,442.83333333333,-0.0003395177018887,0.0003979890930149,-5.8471391126174e-05,-1.3977217296149e-06,1.9283660777579e-06,-5.3064434814302e-07,-16.332690919011,62.461501428097,2.0994486143288,1.2300925925926,50400.0,1,1100.0,530.0,0.2,17.0
1778,38347200,443.83333333333,-0.0003401232414116,0.0003987019071443,-5.857866573269e-05,-1.4046998524732e-06,1.9384790593749e-06,-5.3377920690163e-07,-16.331945221484,62.549534249469,2.1079790020621,1.2328703703704,50400.0,1,1100.0,530.0,0.2,17.0
1782,38433600,444.83333333333,-0.0003407285210374,0.0003994144382776,-5.8685917240136e-05,-1.4117013392407e-06,1.9486281489575e-06,-5.3692680971681e-07,-16.331207508398,62.637063863451,2.1163164027432,1.2356481481481,50400.0,1,1100.0,530.0,0.2,17.0
1786,38520000,445.83333333333,-0.0003413335437001,0.0004001266896252,-5.87931459251e-05,-1.4187262395393e-06,1.9588134272952e-06,-5.400871877559e-07,-16.330476714798,62.7248711626,2.1247710544945,1.2384259259259,50400.0,1,1100.0,530.0,0.2,17.0
1790,38606400,446.83333333333,-0.000341938310816,0.0004008386628434,-5.8900352027398e-05,-1.425774597543e-06,1.9690349679042e-06,-5.4326037036118e-07,-16.329748044589,62.812790568559,2.1332754568183,1.2412037037037,50400.0,1,1100.0,530.0,0.2,17.0
1794,38692800,447.83333333333,-0.0003425428223036,0.0004015503575379,-5.9007535234311e-05,-1.4328464536478e-06,1.9792928374074e-06,-5.464463837596e-07,-16.329038709759,62.900567668463,2.1417284493998,1.2439814814815,50400.0,1,1100.0,530.0,0.2,17.0
1798,38779200,448.83333333333,-0.0003431470762972,0.0004022617715574,-5.9114695260268e-05,-1.4399418460882e-06,1.989587101653e-06,-5.4964525556483e-07,-16.328315087605,62.988062273904,2.1500906322118,1.2467592592593,50400.0,1,1100.0,530.0,0.2,17.0
1802,38865600,449.83333333333,-0.0003437511311576,0.0004029729733447,-5.9221842187069e-05,-1.4470609397581e-06,1.9999180000089e-06,-5.5285706025077e-07,-16.325928903437,63.084256675345,2.1623837034231,1.249537037037,50400.0,1,1100.0,530.0,0.2,17.0
1806,38952000,450.83333333333,-0.0003443549293463,0.0004036838951097,-5.9328965763441e-05,-1.4542036571171e-06,2.0102854380087e-06,-5.5608178089159e-07,-16.325159717037,63.171779900255,2.1708191386835,1.2523148148148,50400.0,1,1100.0,530.0,0.2,17.0
1810,39038400,451.83333333333,-0.0003449584166532,0.0004043944729587,-5.9436056305532e-05,-1.4613699261582e-06,2.0206893287753e-06,-5.593194026171e-07,-16.326135743819,63.250922612884,2.1754173582403,1.2550925925926,50400.0,1,1100.0,530.0,0.2,17.0
1814,39124800,452.83333333333,-0.0003455616463995,0.0004051047696987,-5.9543123299171e-05,-1.4685598966202e-06,2.0311298905236e-06,-5.6256999390341e-07,-16.325352344587,63.338222314125,2.1837946214591,1.2578703703704,50400.0,1,1100.0,530.0,0.2,17.0
1818,39211200,453.83333333333,-0.0003461646240215,0.000405814791398,-5.9650167376536e-05,-1.4757736238712e-06,2.0416072119948e-06,-5.6583358812367e-07,-16.324676188525,63.425955566933,2.1922854070893,1.2606481481481,50400.0,1,1100.0,530.0,0.2,17.0
1822,39297600,454.83333333333,-0.0003467673454447,0.0004065245332792,-5.9757187834515e-05,-1.4830111395329e-06,2.0521213492218e-06,-5.6911020968895e-07,-16.323964403451,63.51315299983,2.2006001024602,1.2634259259259,50400.0,1,1100.0,530.0,0.2,17.0
1826,39384000,455.83333333333,-0.0003473698131288,0.0004072339980829,-5.9864184954132e-05,-1.4902724914049e-06,2.0626723802627e-06,-5.723998888578e-07,-16.323201281899,63.600641830028,2.2090773979806,1.2662037037037,50400.0,1,1100.0,530.0,0.2,17.0
1830,39470400,456.83333333333,-0.0003479720259908,0.000407943184425,-5.9971158434233e-05,-1.4975577187175e-06,2.0732603716617e-06,-5.7570265294416e-07,-16.322486564042,63.687854624442,2.2174280166429,1.2689814814815,50400.0,1,1100.0,530.0,0.2,17.0
1834,39556800,457.83333333333,-0.0003485740393261,0.0004086521572422,-6.0078117916115e-05,-1.5048669812516e-06,2.0838855559404e-06,-5.790185746888e-07,-16.320048219489,63.783454098404,2.2296349602878,1.2717592592593,50400.0,1,1100.0,530.0,0.2,17.0
1838,39643200,458.83333333333,-0.0003491757998833,0.0004093608536879,-6.0185053804658e-05,-1.5122002092968e-06,2.0945478493662e-06,-5.8234764006933e-07,-16.319337136083,63.870794582625,2.2380539724894,1.274537037037,50400.0,1,1100.0,530.0,0.2,17.0
1842,39729600,459.83333333333,-0.0003497773053905,0.0004100692710435,-6.029196565298e-05,-1.5195574396016e-06,2.1052473148406e-06,-5.8568987523898e-07,-16.318565330289,63.957860542528,2.2464306625331,1.2773148148148,50400.0,1,1100.0,530.0,0.2,17.0
1846,39816000,460.83333333333,-0.0003503785021758,0.0004107773460247,-6.03988438489e-05,-1.5269385986492e-06,2.1159838631744e-06,-5.8904526452519e-07,-16.319472673397,64.036648428265,2.251051119637,1.2800925925926,50400.0,1,1100.0,530.0,0.2,17.0
1850,39902400,461.83333333333,-0.0003509794443951,0.0004114851423505,-6.0505697955378e-05,-1.5343438416356e-06,2.1267577206413e-06,-5.924138790057e-07,-16.318716295123,64.123583866289,2.2593880796567,1.2828703703704,50400.0,1,1100.0,530.0,0.2,17.0
1854,39988800,462.83333333333,-0.0003515801348573,0.0004121926631642,-6.0612528306855e-05,-1.5417732160682e-06,2.1375689650341e-06,-5.9579574896594e-07,-16.318003632847,64.210733064949,2.2677830495211,1.2856481481481,50400.0,1,1100.0,530.0,0.2,17.0
1858,40075200,463.83333333333,-0.0003521805717338,0.0004128999062701,-6.0719334536331e-05,-1.5492267586553e-06,2.1484176590914e-06,-5.991909004361e-07,-16.317232871151,64.297631995,2.2761399276485,1.2884259259259,50400.0,1,1100.0,530.0,0.2,17.0
1862,40161600,464.83333333333,-0.0003527807570306,0.0004136068746691,-6.0826117638512e-05,-1.5567044909671e-06,2.1593038380467e-06,-6.0259934707952e-07,-16.316532257456,64.384767652762,2.2845477885753,1.2912037037037,50400.0,1,1100.0,530.0,0.2,17.0
1866,40248000,465.83333333333,-0.0003533806936612,0.0004143135700814,-6.0932876420137e-05,-1.5642065092749e-06,2.170227659887e-06,-6.0602115061208e-07,-16.315792174158,64.471986933137,2.2930348213619,1.2939814814815,50400.0,1,1100.0,530.0,0.2,17.0
1870,40334400,466.83333333333,-0.0003539803777695,0.000415019988664,-6.1039610894574e-05,-1.571732824406e-06,2.1811891460705e-06,-6.0945632166448e-07,-16.315073045739,64.558734872548,2.3013297822819,1.2967592592593,50400.0,1,1100.0,530.0,0.2,17.0
1874,40420800,467.83333333333,-0.0003545798127966,0.0004157261343414,-6.1146321544845e-05,-1.5792834862867e-06,2.1921883783453e-06,-6.1290489205865e-07,-16.314393962196,64.645795375503,2.3097297552792,1.299537037037,50400.0,1,1100.0,530.0,0.2,17.0
1878,40507200,468.83333333333,-0.0003551789951164,0.0004164320027684,-6.1253007651971e-05,-1.5868585254224e-06,2.2032254091767e-06,-6.1636688375424e-07,-16.313560112226,64.732506194901,2.3181179432471,1.3023148148148,50400.0,1,1100.0,530.0,0.2,17.0
1882,40593600,469.83333333333,-0.0003557779833993,0.0004171376636098,-6.1359680210493e-05,-1.5944580888001e-06,2.2143004477339e-06,-6.1984235893383e-07,-16.311256230354,64.82790800941,2.3303078373582,1.3050925925926,50400.0,1,1100.0,530.0,0.2,17.0
1886,40680000,470.83333333333,-0.0003563767225799,0.0004178430503482,-6.1466327768301e-05,-1.6020821500575e-06,2.2254134839027e-06,-6.2333133384518e-07,-16.310526268646,64.914693057379,2.3386637700396,1.3078703703704,50400.0,1,1100.0,530.0,0.2,17.0
1890,40766400,471.83333333333,-0.0003569752114629,0.0004185481622986,-6.1572950835641e-05,-1.6097307226239e-06,2.236564541347e-06,-6.2683381872312e-07,-16.30980144956,65.001414431709,2.3470230970243,1.3106481481481,50400.0,1,1100.0,530.0,0.2,17.0
1894,40852800,472.83333333333,-0.0003575733927206,0.0004192529319679,-6.1679539247259e-05,-1.6174037203852e-06,2.2477535133213e-06,-6.3034979293607e-07,-16.310680694204,65.079442828266,2.351521413089,1.3134259259259,50400.0,1,1100.0,530.0,0.2,17.0
1898,40939200,473.83333333333,-0.000358171324753,0.0004199574279743,-6.1786103221264e-05,-1.6251013121221e-06,2.2589806449506e-06,-6.3387933282855e-07,-16.309956765238,65.16613373469,2.3598884762461,1.3162037037037,50400.0,1,1100.0,530.0,0.2,17.0
1902,41025600,474.83333333333,-0.0003587690087668,0.000420661652439,-6.1892643672186e-05,-1.6328235152503e-06,2.2702459653455e-06,-6.3742245009527e-07,-16.309273879852,65.252944066311,2.3682877614736,1.3189814814815,50400.0,1,1100.0,530.0,0.2,17.0
1906,41112000,475.83333333333,-0.0003593664998264,0.0004213656684164,-6.1999168589978e-05,-1.6405705475972e-06,2.2815498020457e-06,-6.4097925444845e-07,-16.306885332716,65.347886835437,2.3804194905798,1.3217592592593,50400.0,1,1100.0,530.0,0.2,17.0
1910,41198400,476.83333333333,-0.0003599636876612,0.0004220693468477,-6.2105659186502e-05,-1.6483421789176e-06,2.2928918418334e-06,-6.4454966291582e-07,-16.307821334159,65.42606767922,2.3849756094379,1.324537037037,50400.0,1,1100.0,530.0,0.2,17.0
1914,41284800,477.83333333333,-0.0003605606282528,0.0004227727535896,-6.2212125336753e-05,-1.6561385739087e-06,2.304272324352e-06,-6.481337504433e-07,-16.307151341115,65.512663673912,2.3933124143271,1.3273148148148,50400.0,1,1100.0,530.0,0.2,17.0
1918,41371200,478.83333333333,-0.0003611573753409,0.0004234759516895,-6.2318576348544e-05,-1.6639598966746e-06,2.3156914890294e-06,-6.5173159235486e-07,-16.304729405008,65.607482207422,2.4054689179451,1.3300925925926,50400.0,1,1100.0,530.0,0.2,17.0
1922,41457600,479.83333333333,-0.0003617538163649,0.0004241788086256,-6.2424992260659e-05,-1.67180593625e-06,2.327149056165e-06,-6.5534311991496e-07,-16.305513970719,65.685249641728,2.4100253773863,1.3328703703704,50400.0,1,1100.0,530.0,0.2,17.0
1926,41544000,480.83333333333,-0.0003623500113247,0.0004248813949107,-6.2531383585954e-05,-1.6796768675918e-06,2.3386452797563e-06,-6.5896841216447e-07,-16.304863612303,65.771740123534,2.4183464025676,1.3356481481481,50400.0,1,1100.0,530.0,0.2,17.0
1930,41630400,481.83333333333,-0.0003629459595348,0.0004255837096559,-6.263775012105e-05,-1.6875727298485e-06,2.3501802261113e-06,-6.6260749626287e-07,-16.304145516749,65.858106800334,2.4266775263846,1.3384259259259,50400.0,1,1100.0,530.0,0.2,17.0
1934,41716800,482.83333333333,-0.000363541660897,0.0004262857527453,-6.2744091848278e-05,-1.6954935647723e-06,2.3617539657704e-06,-6.6626040099807e-07,-16.30344426433,65.944408750676,2.434987641473,1.3412037037037,50400.0,1,1100.0,530.0,0.2,17.0
1938,41803200,483.83333333333,-0.0003641371147839,0.0004269875231395,-6.2850408355597e-05,-1.703439412394e-06,2.3733665648568e-06,-6.6992715246279e-07,-16.302669748651,66.030579456878,2.4433250366978,1.3439814814815,50400.0,1,1100.0,530.0,0.2,17.0
1942,41889600,484.83333333333,-0.0003647323239302,0.0004276890240356,-6.2956700105413e-05,-1.7114103210681e-06,2.385018102805e-06,-6.7360778173693e-07,-16.301778158841,66.117202856564,2.4519183063187,1.3467592592593,50400.0,1,1100.0,530.0,0.2,17.0
1946,41976000,485.83333333333,-0.0003653272880207,0.0004283902550043,-6.3062966983578e-05,-1.7194063297931e-06,2.3967086460403e-06,-6.7730231624723e-07,-16.301229385305,66.203314635821,2.4600788072582,1.349537037037,50400.0,1,1100.0,530.0,0.2,17.0
1950,42062400,486.83333333333,-0.0003659220050838,0.0004290912136227,-6.3169208538881e-05,-1.7274274767572e-06,2.4084382597112e-06,-6.8101078295397e-07,-16.300505441276,66.289289617216,2.468330124336,1.3523148148148,50400.0,1,1100.0,530.0,0.2,17.0
1954,42148800,487.83333333333,-0.0003665164764225,0.0004297919013218,-6.3275424899263e-05,-1.7354738060669e-06,2.4202070167405e-06,-6.8473321067363e-07,-16.299777836786,66.375361180802,2.4766348449447,1.3550925925926,50400.0,1,1100.0,530.0,0.2,17.0
1958,42235200,488.83333333333,-0.0003671107045292,0.0004304923209308,-6.338161640158e-05,-1.7435453630956e-06,2.4320149914988e-06,-6.8846962840317e-07,-16.299102713856,66.461617641852,2.4849877534784,1.3578703703704,50400.0,1,1100.0,530.0,0.2,17.0
1962,42321600,489.83333333333,-0.0003677046867862,0.0004311924700937,-6.3487783307476e-05,-1.7516421586262e-06,2.443862204522e-06,-6.9222004589584e-07,-16.298375752474,66.547680361832,2.4933100057368,1.3606481481481,50400.0,1,1100.0,530.0,0.2,17.0
1966,42408000,490.83333333333,-0.0003682984246633,0.0004318923488222,-6.359392415888e-05,-1.7597642906451e-06,2.4557488176462e-06,-6.9598452700104e-07,-16.297649892596,66.633582507938,2.501579268711,1.3634259259259,50400.0,1,1100.0,530.0,0.2,17.0
1970,42494400,491.83333333333,-0.0003688919158455,0.0004325919559673,-6.3700040121771e-05,-1.7679117407843e-06,2.4676748032589e-06,-6.9976306247462e-07,-16.296905955569,66.719422672875,2.5098621145307,1.3662037037037,50400.0,1,1100.0,530.0,0.2,17.0
1974,42580800,492.83333333333,-0.0003694851648194,0.0004332912950047,-6.3806130185291e-05,-1.7760846159964e-06,2.4796403358566e-06,-7.0355571986017e-07,-16.296191173289,66.805441913728,2.5181910363221,1.3689814814815,50400.0,1,1100.0,530.0,0.2,17.0
1978,42667200,493.83333333333,-0.0003700781701123,0.0004339903649443,-6.3912194832015e-05,-1.7842829260345e-06,2.491645433529e-06,-7.0736250749454e-07,-16.295475996585,66.891339962898,2.5265037268065,1.3717592592593,50400.0,1,1100.0,530.0,0.2,17.0
1982,42753600,494.83333333333,-0.0003706709877622,0.0004346892316659,-6.4018243903767e-05,-1.7925068439043e-06,2.5036903483575e-06,-7.1118350445317e-07,-16.293123668675,66.985711197804,2.5386235053885,1.374537037037,50400.0,1,1100.0,530.0,0.2,17.0
1986,42840000,495.83333333333,-0.0003712635069112,0.0004353877654074,-6.412425849618e-05,-1.8007561255505e-06,2.5157747469929e-06,-7.150186214424e-07,-16.294097168498,67.063180718298,2.5431139472536,1.3773148148148,50400.0,1,1100.0,530.0,0.2,17.0
1990,42926400,496.83333333333,-0.0003718557835722,0.0004360860303619,-6.4230246789727e-05,-1.8090309971685e-06,2.5278989691826e-06,-7.1886797201406e-07,-16.29335797394,67.148938529849,2.5514165905897,1.3800925925926,50400.0,1,1100.0,530.0,0.2,17.0
1994,43012800,497.83333333333,-0.0003724478714812,0.0004367840913822,-6.4336219900979e-05,-1.8173315709729e-06,2.5400631681918e-06,-7.2273159721899e-07,-16.290969837653,67.243148328727,2.563538908157,1.3828703703704,50400.0,1,1100.0,530.0,0.2,17.0
1998,43099200,498.83333333333,-0.0003730396625376,0.0004374818193819,-6.4442156844309e-05,-1.8256576910781e-06,2.5522671542921e-06,-7.2660946321402e-07,-16.291893969873,67.320375838004,2.5680186756571,1.3856481481481,50400.0,1,1100.0,530.0,0.2,17.0
2002,43185600,499.83333333333,-0.0003736312114658,0.000438179279599,-6.4548068133237e-05,-1.8340094989126e-06,2.564511128539e-06,-7.3050162962642e-07,-16.29122056939,67.406041383475,2.576270896098,1.3884259259259,50400.0,1,1100.0,530.0,0.2,17.0
2006,43272000,500.83333333333,-0.0003742225153756,0.0004388764686077,-6.4653953232081e-05,-1.8423870267935e-06,2.5767951472592e-06,-7.3440812046565e-07,-16.290343437932,67.491456914954,2.5846020787229,1.3912037037037,50400.0,1,1100.0,530.0,0.2,17.0
2010,43358400,501.83333333333,-0.0003748136341363,0.0004395734566712,-6.4759822534876e-05,-1.8507904604265e-06,2.5891194805593e-06,-7.3832902013271e-07,-16.288071752399,67.585574172394,2.5966509439683,1.3939814814815,50400.0,1,1100.0,530.0,0.2,17.0
2014,43444800,502.83333333333,-0.0003754044565108,0.0004402701127737,-6.4865656262855e-05,-1.8592195772576e-06,2.6014838315206e-06,-7.4226425426297e-07,-16.288984266041,67.662718201985,2.6011507301893,1.3967592592593,50400.0,1,1100.0,530.0,0.2,17.0
2018,43531200,503.83333333333,-0.0003759950923859,0.0004409665662789,-6.4971473893005e-05,-1.8676746801593e-06,2.6138886330571e-06,-7.4621395289782e-07,-16.286642234465,67.756643026047,2.6132081835859,1.399537037037,50400.0,1,1100.0,530.0,0.2,17.0
2022,43617600,504.83333333333,-0.0003765854304555,0.0004416626859056,-6.5077255450068e-05,-1.8761555452734e-06,2.6263335850818e-06,-7.5017803980847e-07,-16.287492903208,67.833542201843,2.6176921705773,1.4023148148148,50400.0,1,1100.0,530.0,0.2,17.0
2026,43704000,505.83333333333,-0.0003771755297956,0.0004423585412059,-6.5183011410276e-05,-1.8846623530288e-06,2.6388189504442e-06,-7.5415659741544e-07,-16.286839126673,67.919189225994,2.6259962118661,1.4050925925926,50400.0,1,1100.0,530.0,0.2,17.0
2030,43790400,506.83333333333,-0.0003777653879283,0.0004430541292096,-6.5288741281295e-05,-1.8931951383691e-06,2.651344789708e-06,-7.5814965133896e-07,-16.286115550132,68.004481603645,2.6342340981275,1.4078703703704,50400.0,1,1100.0,530.0,0.2,17.0
2034,43876800,507.83333333333,-0.0003783550042482,0.0004437494491584,-6.5394444910233e-05,-1.9017539408912e-06,2.6639111698783e-06,-7.6215722898706e-07,-16.285336461813,68.089694414818,2.6424811408785,1.4106481481481,50400.0,1,1100.0,530.0,0.2,17.0
2038,43963200,508.83333333333,-0.0003789443819186,0.0004444445045875,-6.550012266898e-05,-1.9103388099051e-06,2.6765181710787e-06,-7.6617936117361e-07,-16.284658335159,68.175126338755,2.6507697846113,1.4134259259259,50400.0,1,1100.0,530.0,0.2,17.0
2042,44049600,509.83333333333,-0.0003795335205675,0.0004451392950851,-6.560577451761e-05,-1.9189497836949e-06,2.689165858352e-06,-7.7021607465712e-07,-16.283976344356,68.2604512678,2.6590094649951,1.4162037037037,50400.0,1,1100.0,530.0,0.2,17.0
2046,44136000,510.83333333333,-0.0003801224206126,0.0004458338209129,-6.5711400300271e-05,-1.9275869077554e-06,2.7018543070807e-06,-7.742673993253e-07,-16.283273009281,68.345775131765,2.667297348344,1.4189814814815,50400.0,1,1100.0,530.0,0.2,17.0
2050,44222400,511.83333333333,-0.0003807111352812,0.0004465281447189,-6.5817009437682e-05,-1.9362503525336e-06,2.7145837660429e-06,-7.7833341350931e-07,-16.280855893471,68.439345537606,2.6793662299309,1.4217592592593,50400.0,1,1100.0,530.0,0.2,17.0
2054,44308800,512.83333333333,-0.0003812995577094,0.0004472221405202,-6.5922582810786e-05,-1.9449399000409e-06,2.7273539440879e-06,-7.8241404404694e-07,-16.281850620953,68.51621177545,2.6838279861291,1.424537037037,50400.0,1,1100.0,530.0,0.2,17.0
2058,44395200,513.83333333333,-0.0003818877953214,0.0004479159349159,-6.6028139594466e-05,-1.9536558524201e-06,2.7401652737204e-06,-7.8650942130024e-07,-16.279447064125,68.609752410776,2.6958978734115,1.4273148148148,50400.0,1,1100.0,530.0,0.2,17.0
2062,44481600,514.83333333333,-0.0003824757385946,0.0004486093986474,-6.613366005284e-05,-1.9623979841157e-06,2.7530174520941e-06,-7.9061946797844e-07,-16.280373994058,68.686271754316,2.7002966593512,1.4300925925926,50400.0,1,1100.0,530.0,0.2,17.0
2066,44568000,515.83333333333,-0.0003830634452739,0.0004493025997273,-6.6239154453476e-05,-1.9711664758633e-06,2.7659107426558e-06,-7.9474426679246e-07,-16.279681469146,68.771524838868,2.7085967907994,1.4328703703704,50400.0,1,1100.0,530.0,0.2,17.0
2070,44654400,516.83333333333,-0.000383650915043,0.0004499955376379,-6.6344622594879e-05,-1.9799613684651e-06,2.7788452140095e-06,-7.9888384554442e-07,-16.279024205971,68.856616571668,2.7168394477064,1.4356481481481,50400.0,1,1100.0,530.0,0.2,17.0
2074,44740800,517.83333333333,-0.0003842381999342,0.0004506882737002,-6.6450073766034e-05,-1.9887828300843e-06,2.7918211117766e-06,-8.030382816923e-07,-16.276597085607,68.94986725632,2.7288629954277,1.4384259259259,50400.0,1,1100.0,530.0,0.2,17.0
2078,44827200,518.83333333333,-0.000384825193027,0.0004513806817737,-6.6555488746707e-05,-1.9976306413164e-06,2.8048381430065e-06,-8.0720750169008e-07,-16.277535017265,69.026411465522,2.7333186416901,1.4412037037037,50400.0,1,1100.0,530.0,0.2,17.0
2082,44913600,519.83333333333,-0.0003854119480458,0.0004520728252713,-6.6660877225522e-05,-2.0065049729939e-06,2.8178965575746e-06,-8.1139158458069e-07,-16.276808791158,69.111255685973,2.7415392231282,1.4439814814815,50400.0,1,1100.0,530.0,0.2,17.0
2086,45000000,520.83333333333,-0.0003859984672126,0.0004527647064966,-6.6766239283999e-05,-2.0154058719874e-06,2.8309964310017e-06,-8.1559055901425e-07,-16.276107433036,69.196261133224,2.749813707101,1.4467592592593,50400.0,1,1100.0,530.0,0.2,17.0
2090,45086400,521.83333333333,-0.0003865847487227,0.0004534563233615,-6.6871574638756e-05,-2.0243333748496e-06,2.8441378267575e-06,-8.1980445190786e-07,-16.275398655716,69.280959709199,2.7579982139746,1.449537037037,50400.0,1,1100.0,530.0,0.2,17.0
2094,45172800,522.83333333333,-0.0003871707947231,0.0004541476782905,-6.6976883567424e-05,-2.0332875281451e-06,2.8573208212525e-06,-8.2403329310745e-07,-16.274590991944,69.365988530754,2.7663826143386,1.4523148148148,50400.0,1,1100.0,530.0,0.2,17.0
2098,45259200,523.83333333333,-0.0003877566027607,0.0004548387683813,-6.7082165620577e-05,-2.0422683645334e-06,2.8705454717134e-06,-8.2827710717998e-07,-16.273909275093,69.450487837481,2.7744952040634,1.4550925925926,50400.0,1,1100.0,530.0,0.2,17.0
2102,45345600,524.83333333333,-0.0003883421747799,0.0004555295957508,-6.7187420970953e-05,-2.0512759326591e-06,2.883811858072e-06,-8.3253592541283e-07,-16.273214552557,69.535155599305,2.7826833226774,1.4578703703704,50400.0,1,1100.0,530.0,0.2,17.0
2106,45432000,525.83333333333,-0.0003889275101462,0.000456220159627,-6.7292649480789e-05,-2.0603102707781e-06,2.8971200450791e-06,-8.3680977430102e-07,-16.27249062146,69.619724090593,2.7908774936739,1.4606481481481,50400.0,1,1100.0,530.0,0.2,17.0
2110,45518400,526.83333333333,-0.0003895126105239,0.0004569104618797,-6.7397851355844e-05,-2.0693714248923e-06,2.9104701085969e-06,-8.4109868370462e-07,-16.271816431219,69.704406196832,2.7990841945945,1.4634259259259,50400.0,1,1100.0,530.0,0.2,17.0
2114,45604800,527.83333333333,-0.0003900974742716,0.0004576005004861,-6.7503026214496e-05,-2.0784594315856e-06,2.92386211132e-06,-8.4540267973442e-07,-16.271049168128,69.788881324107,2.8072997076813,1.4662037037037,50400.0,1,1100.0,530.0,0.2,17.0
2118,45691200,528.83333333333,-0.0003906821050787,0.0004582902796823,-6.760817460362e-05,-2.0875743410704e-06,2.9372961347363e-06,-8.4972179366597e-07,-16.270403056816,69.873638527811,2.8155378859846,1.4689814814815,50400.0,1,1100.0,530.0,0.2,17.0
2122,45777600,529.83333333333,-0.0003912665018369,0.0004589797981449,-6.7713296307944e-05,-2.0967161910206e-06,2.9507722432726e-06,-8.5405605225201e-07,-16.269733906425,69.958215231628,2.8237285097197,1.4717592592593,50400.0,1,1100.0,530.0,0.2,17.0
2126,45864000,530.83333333333,-0.0003918506635986,0.0004596690546304,-6.7818391031793e-05,-2.1058850206388e-06,2.9642905031313e-06,-8.5840548249254e-07,-16.268993485665,70.042673064879,2.8319520037944,1.474537037037,50400.0,1,1100.0,530.0,0.2,17.0
2130,45950400,531.83333333333,-0.0003924345913102,0.0004603580501906,-6.7923458880429e-05,-2.1150808736013e-06,2.9778509870578e-06,-8.6277011345649e-07,-16.268305653003,70.12714064089,2.8401483474932,1.4773148148148,50400.0,1,1100.0,530.0,0.2,17.0
2134,46036800,532.83333333333,-0.0003930182844185,0.0004610467841398,-6.8028499721311e-05,-2.1243037880256e-06,2.991453759508e-06,-8.6714997148241e-07,-16.267568851431,70.211521474641,2.8483592781053,1.4800925925926,50400.0,1,1100.0,530.0,0.2,17.0
2138,46123200,533.83333333333,-0.000393601741928,0.0004617352552088,-6.8133513280778e-05,-2.1335538035369e-06,3.0050988877874e-06,-8.7154508425057e-07,-16.266811773896,70.295717699911,2.856532048871,1.4828703703704,50400.0,1,1100.0,530.0,0.2,17.0
2142,46209600,534.83333333333,-0.0003941849689128,0.000462423469218,-6.8238500305269e-05,-2.1428309747779e-06,3.0187864595713e-06,-8.7595548479345e-07,-16.26616772657,70.380374211571,2.864803098057,1.4856481481481,50400.0,1,1100.0,530.0,0.2,17.0
2146,46296000,535.83333333333,-0.0003947679609902,0.000463111421016,-6.8343460025736e-05,-2.1521353306603e-06,3.0325165270267e-06,-8.8038119636641e-07,-16.26540526775,70.464533076942,2.8729860272431,1.4884259259259,50400.0,1,1100.0,530.0,0.2,17.0
2150,46382400,536.83333333333,-0.0003953507204238,0.0004637991131632,-6.844839273938e-05,-2.1614669184734e-06,3.046289167788e-06,-8.8482224931456e-07,-16.264698531207,70.5488569617,2.8811993063461,1.4912037037037,50400.0,1,1100.0,530.0,0.2,17.0
2154,46468800,537.83333333333,-0.0003959332446956,0.0004644865426989,-6.8553298003325e-05,-2.1708257707528e-06,3.0601044386773e-06,-8.8927866792446e-07,-16.263994991736,70.632797708722,2.8892829585553,1.4939814814815,50400.0,1,1100.0,530.0,0.2,17.0
2158,46555200,538.83333333333,-0.0003965155930881,0.0004651737793144,-6.8658186226264e-05,-2.1802120839929e-06,3.0739626260169e-06,-8.9375054202405e-07,-16.261656763823,70.725729314638,2.9013781389915,1.4967592592593,50400.0,1,1100.0,530.0,0.2,17.0
2162,46641600,539.83333333333,-0.0003970976538789,0.0004658606912294,-6.8763037350449e-05,-2.1896256107402e-06,3.0878633953942e-06,-8.9823778465395e-07,-16.262594992048,70.801340959889,2.9057215288945,1.499537037037,50400.0,1,1100.0,530.0,0.2,17.0
2166,46728000,540.83333333333,-0.0003976794838266,0.0004665473453085,-6.886786148183e-05,-2.1990665368933e-06,3.1018070177428e-06,-9.0274048084956e-07,-16.261902141037,70.885645998703,2.9139767800627,1.5023148148148,50400.0,1,1100.0,530.0,0.2,17.0
2170,46814400,541.83333333333,-0.0003982610818149,0.0004672337402093,-6.8972658394431e-05,-2.2085348997354e-06,3.1157935569371e-06,-9.0725865720173e-07,-16.261187337306,70.969733970346,2.9221675645206,1.5050925925926,50400.0,1,1100.0,530.0,0.2,17.0
2174,46900800,542.83333333333,-0.0003988424470081,0.0004679198749474,-6.907742793927e-05,-2.218030739385e-06,3.1298230818734e-06,-9.1179234248838e-07,-16.260495345847,71.053621659683,2.9302787603833,1.5078703703704,50400.0,1,1100.0,530.0,0.2,17.0
2177,46922400,543.08333333333,-0.0003988424470081,0.0004679198749474,-6.907742793927e-05,-2.218030739385e-06,3.1298230818734e-06,-9.1179234248838e-07,0.61501688367371,92.262603920156,44.855334099468,1.5085648148148,90000.0,3,25.0,25.0,0.1,0.1
2181,47023200,544.25,-0.0003988814641524,0.0004679656502255,-6.9084186073058e-05,-2.2186356588595e-06,3.1307060060628e-06,-9.1207034720336e-07,-16.261423245475,71.067013185178,2.9262407765751,1.5118055555556,50400.0,1,1100.0,530.0,0.2,17.0
2185,47109600,545.25,-0.000399462547471,0.0004686514682547,-6.9188920783733e-05,-2.2281607713002e-06,3.1447813387274e-06,-9.166205674272e-07,-16.259752075401,71.143037162613,2.9389559272729,1.5145833333333,50400.0,1,1100.0,530.0,0.2,17.0
2189,47196000,546.25,-0.0004000433987258,0.000469337026811,-6.9293628085164e-05,-2.2377134442713e-06,3.158899796827e-06,-9.2118635255574e-07,-16.258986637677,71.226883915811,2.9471356118857,1.5173611111111,50400.0,1,1100.0,530.0,0.2,17.0
2193,47282400,547.25,-0.0004006240188291,0.0004700223269512,-6.9398308122086e-05,-2.2472937197844e-06,3.1730614508159e-06,-9.2576773103154e-07,-16.258312906792,71.310695356873,2.9552291758513,1.5201388888889,50400.0,1,1100.0,530.0,0.2,17.0
2197,47368800,548.25,-0.0004012044084445,0.0004707073693488,-6.9502960904276e-05,-2.2569016398772e-06,3.1872663703545e-06,-9.3036473047728e-07,-16.257575751467,71.394600692572,2.9634357606616,1.5229166666667,50400.0,1,1100.0,530.0,0.2,17.0
2201,47455200,549.25,-0.0004017845681307,0.0004713921536214,-6.9607585490702e-05,-2.2665372728037e-06,3.2015146681443e-06,-9.3497739534066e-07,-16.256843769323,71.478338646944,2.9715806047155,1.5256944444444,50400.0,1,1100.0,530.0,0.2,17.0
2205,47541600,550.25,-0.0004023644983552,0.0004720766820537,-6.9712183698487e-05,-2.2762006125707e-06,3.2158063367429e-06,-9.3960572417225e-07,-16.256166944074,71.562302881412,2.9797863801636,1.5284722222222,50400.0,1,1100.0,530.0,0.2,17.0
2209,47628000,551.25,-0.0004029441977621,0.0004727609521379,-6.9816754375812e-05,-2.2858917196662e-06,3.23014147746e-06,-9.4424975779377e-07,-16.255440902518,71.645955631268,2.9879226508849,1.53125,50400.0,1,1100.0,530.0,0.2,17.0
2213,47714400,552.25,-0.0004035236686326,0.0004734449664901,-6.9921297857473e-05,-2.2956106408775e-06,3.2445201672565e-06,-9.48909526379e-07,-16.25476241454,71.729780295092,2.996086985505,1.5340277777778,50400.0,1,1100.0,530.0,0.2,17.0
2217,47800800,553.25,-0.0004041029142176,0.0004741287287953,-7.0025814577685e-05,-2.3053574243511e-06,3.2589424844498e-06,-9.5358506009872e-07,-16.254137386869,71.813879361489,3.0043356818286,1.5368055555556,50400.0,1,1100.0,530.0,0.2,17.0
2221,47887200,554.25,-0.0004046819296017,0.000474812233223,-7.0130303621311e-05,-2.3151320993323e-06,3.2734084818601e-06,-9.5827638252778e-07,-16.253431418947,71.897394807516,3.0124427868407,1.5395833333333,50400.0,1,1100.0,530.0,0.2,17.0
2225,47973600,555.25,-0.0004052607148077,0.0004754954797574,-7.0234764949661e-05,-2.3249347075646e-06,3.2879182297241e-06,-9.6298352215946e-07,-16.252651958872,71.980905442483,3.0206055540255,1.5423611111111,50400.0,1,1100.0,530.0,0.2,17.0
2229,48060000,556.25,-0.0004058392702093,0.0004761784687508,-7.0339198541473e-05,-2.3347652898881e-06,3.3024717963806e-06,-9.6770650649256e-07,-16.251959735084,72.064331040796,3.0286881261471,1.5451388888889,50400.0,1,1100.0,530.0,0.2,17.0
2233,48146400,557.25,-0.0004064175970927,0.0004768612017133,-7.0443604620628e-05,-2.3446238888516e-06,3.317069252491e-06,-9.7244536363937e-07,-16.251240487895,72.147884545254,3.0368469031517,1.5479166666667,50400.0,1,1100.0,530.0,0.2,17.0
2237,48232800,558.25,-0.0004069957521745,0.0004775437452388,-7.054799306423e-05,-2.3545107002065e-06,3.3317108830539e-06,-9.7720018284739e-07,-16.248929084349,72.240092242652,3.0488633926446,1.5506944444444,50400.0,1,1100.0,530.0,0.2,17.0
2241,48319200,559.25,-0.0004075736235049,0.0004782259674529,-7.0652343947969e-05,-2.3644254648103e-06,3.3463963383764e-06,-9.8197087356603e-07,-16.249843935542,72.3149266023,3.053147825792,1.5534722222222,50400.0,1,1100.0,530.0,0.2,17.0
2245,48405600,560.25,-0.0004081512696216,0.0004789079372301,-7.0756667608544e-05,-2.3743683774339e-06,3.3611259009257e-06,-9.8675752349182e-07,-16.249195159884,72.398661381348,3.0613630241534,1.55625,50400.0,1,1100.0,530.0,0.2,17.0
2249,48492000,561.25,-0.000408728686972,0.0004795896503803,-7.0860963408276e-05,-2.3843394704526e-06,3.3758996282838e-06,-9.9156015783125e-07,-16.248466081576,72.481934835653,3.0694709454671,1.5590277777778,50400.0,1,1100.0,530.0,0.2,17.0
2253,48578400,562.25,-0.0004093058777178,0.0004802711093484,-7.0965231630583e-05,-2.394338789389e-06,3.3907175951902e-06,-9.9637880580116e-07,-16.247780769084,72.565365521028,3.0776193628765,1.5618055555556,50400.0,1,1100.0,530.0,0.2,17.0
2257,48664800,563.25,-0.0004098828419692,0.000480952314198,-7.1069472228819e-05,-2.4043663766856e-06,3.4055798728829e-06,-1.0012134961974e-06,-16.247063258242,72.648789110917,3.0857904658381,1.5645833333333,50400.0,1,1100.0,530.0,0.2,17.0
2261,48751200,564.25,-0.0004104595780798,0.0004816332629505,-7.1173684870628e-05,-2.414422265833e-06,3.4204865190807e-06,-1.0060642532478e-06,-16.246377085059,72.731880053533,3.0938489644442,1.5673611111111,50400.0,1,1100.0,530.0,0.2,17.0
2265,48837600,565.25,-0.0004110360864094,0.0004823139559793,-7.1277869569837e-05,-2.4245064995545e-06,3.4354376054355e-06,-1.010931105881e-06,-16.245655568417,72.815019676995,3.1019458003827,1.5701388888889,50400.0,1,1100.0,530.0,0.2,17.0
2269,48924000,566.25,-0.0004116123689096,0.000482994395451,-7.1382026541401e-05,-2.4346191244242e-06,3.4504332082892e-06,-1.0158140838651e-06,-16.244950851919,72.898320436356,3.1101127061309,1.5729166666667,50400.0,1,1100.0,530.0,0.2,17.0
2273,49010400,567.25,-0.0004121884237953,0.0004836745792509,-7.1486155455621e-05,-2.4447601759422e-06,3.4654733889359e-06,-1.0207132129937e-06,-16.24420894826,72.981366508514,3.1182226287337,1.5756944444444,50400.0,1,1100.0,530.0,0.2,17.0
2277,49096800,568.25,-0.0004127642550923,0.0004843545120162,-7.1590256923907e-05,-2.4549297051812e-06,3.4805582299969e-06,-1.0256285248157e-06,-16.24356042041,73.064761844691,3.1263987341304,1.5784722222222,50400.0,1,1100.0,530.0,0.2,17.0
2281,49183200,569.25,-0.000413339857674,0.0004850341877869,-7.1694330112925e-05,-2.465127738622e-06,3.4956877812602e-06,-1.0305600426383e-06,-16.24280907426,73.14754591318,3.1344362546015,1.58125,50400.0,1,1100.0,530.0,0.2,17.0
2285,49269600,570.25,-0.0004139152359689,0.0004857136115648,-7.1798375595863e-05,-2.4753543262398e-06,3.5108621214418e-06,-1.035507795202e-06,-16.242127404518,73.230784534998,3.1426058038888,1.5840277777778,50400.0,1,1100.0,530.0,0.2,17.0
2289,49356000,571.25,-0.000414490388916,0.0004863927820735,-7.1902393157507e-05,-2.4856095077581e-06,3.5260813189755e-06,-1.0404718112174e-06,-16.241424658044,73.313824981203,3.1507255865404,1.5868055555556,50400.0,1,1100.0,530.0,0.2,17.0
2293,49442400,572.25,-0.0004150653171712,0.0004870717000573,-7.2006382886071e-05,-2.4958933270252e-06,3.5413454475931e-06,-1.0454521205679e-06,-16.24071695396,73.396890700746,3.1588690868438,1.5895833333333,50400.0,1,1100.0,530.0,0.2,17.0
2297,49528800,573.25,-0.0004156400207567,0.0004877503653082,-7.2110344551476e-05,-2.5062058251796e-06,3.5566545747556e-06,-1.050448749576e-06,-16.240013606249,73.479884241667,3.1670000829908,1.5923611111111,50400.0,1,1100.0,530.0,0.2,17.0
2301,49615200,574.25,-0.0004162144998785,0.0004884287781113,-7.2214278232791e-05,-2.5165470399273e-06,3.5720087647377e-06,-1.0554617248104e-06,-16.239312785765,73.562841316078,3.1751364911726,1.5951388888889,50400.0,1,1100.0,530.0,0.2,17.0
2305,49701600,575.25,-0.0004167887521413,0.0004891069356875,-7.2318183546247e-05,-2.5269170064772e-06,3.587408079476e-06,-1.0604910729989e-06,-16.238627985337,73.645383938378,3.1830813004227,1.5979166666667,50400.0,1,1100.0,530.0,0.2,17.0
2309,49788000,576.25,-0.0004173627826125,0.000489784843833,-7.2422061220511e-05,-2.5373157784926e-06,3.6028526042617e-06,-1.0655368257691e-06,-16.237979881304,73.728514085264,3.1912591694398,1.6006944444444,50400.0,1,1100.0,530.0,0.2,17.0
2313,49874400,577.25,-0.0004179365902941,0.0004904625012345,-7.2525910940346e-05,-2.5477433966314e-06,3.6183424080517e-06,-1.0705990114203e-06,-16.237324406563,73.811432942642,3.1993785754412,1.6034722222222,50400.0,1,1100.0,530.0,0.2,17.0
2317,49960800,578.25,-0.000418510174225,0.0004911399068597,-7.2629732634687e-05,-2.5581998954495e-06,3.6338775502776e-06,-1.075677654828e-06,-16.236632359094,73.894238026166,3.2074791630393,1.60625,50400.0,1,1100.0,530.0,0.2,17.0
2321,50047200,579.25,-0.0004190835868857,0.0004918171224972,-7.2733535611549e-05,-2.5686854649039e-06,3.6494583091297e-06,-1.0807728442258e-06,-16.234168501599,73.98539308185,3.2194588496417,1.6090277777778,50400.0,1,1100.0,530.0,0.2,17.0
2325,50133600,580.25,-0.0004196567218571,0.0004924940225165,-7.2837300659341e-05,-2.5791998461429e-06,3.6650843321224e-06,-1.0858844859795e-06,-16.235156303554,74.05956033044,3.2236856033026,1.6118055555556,50400.0,1,1100.0,530.0,0.2,17.0
2329,50220000,581.25,-0.0004202296883449,0.0004931707355868,-7.2941047241842e-05,-2.5897433884335e-06,3.6807561205138e-06,-1.0910127320803e-06,-16.232835698509,74.150812718461,3.2356168056546,1.6145833333333,50400.0,1,1100.0,530.0,0.2,17.0
2333,50306400,582.25,-0.0004208023776576,0.0004938471335814,-7.3044755923738e-05,-2.6003158247387e-06,3.696473311835e-06,-1.0961574870963e-06,-16.233836840316,74.224906694417,3.2398362195998,1.6173611111111,50400.0,1,1100.0,530.0,0.2,17.0
2337,50392800,583.25,-0.0004213748428404,0.0004945232789922,-7.3148436151774e-05,-2.6109173440979e-06,3.712236181998e-06,-1.1013188379e-06,-16.233100618531,74.307406313953,3.2479214861063,1.6201388888889,50400.0,1,1100.0,530.0,0.2,17.0
2341,50479200,584.25,-0.0004219471394392,0.0004951992372053,-7.3252097766076e-05,-2.6215481438969e-06,3.7280450184804e-06,-1.1064968745835e-06,-16.230750345827,74.39848403846,3.2598451854007,1.6229166666667,50400.0,1,1100.0,530.0,0.2,17.0
2345,50565600,585.25,-0.0004225191594807,0.0004958748808777,-7.3355721396972e-05,-2.6322079598473e-06,3.7438994630932e-06,-1.1116915032459e-06,-16.231715530851,74.472482759002,3.2640846403534,1.6256944444444,50400.0,1,1100.0,530.0,0.2,17.0
2349,50652000,586.25,-0.0004230910102195,0.0004965503373081,-7.3459327088609e-05,-2.6428970996267e-06,3.7597999489727e-06,-1.116902849346e-06,-16.229381654366,74.563506529508,3.2760034388888,1.6284722222222,50400.0,1,1100.0,530.0,0.2,17.0
2353,50738400,587.25,-0.0004236625858082,0.0004972254798069,-7.3562893998685e-05,-2.6536153757145e-06,3.7757462423355e-06,-1.122130866621e-06,-16.230322060021,74.637439194395,3.280260866235,1.63125,50400.0,1,1100.0,530.0,0.2,17.0
2357,50824800,588.25,-0.0004242339408795,0.000497900373703,-7.3666432823467e-05,-2.6643629447803e-06,3.7917385647406e-06,-1.1273756199603e-06,-16.229675558049,74.720020513443,3.2883669677763,1.6340277777778,50400.0,1,1100.0,530.0,0.2,17.0
2361,50911200,589.25,-0.0004248050747882,0.000498575018152,-7.376994336388e-05,-2.6751398454334e-06,3.8077769819311e-06,-1.1326371364977e-06,-16.229016475784,74.802404579223,3.2964177269116,1.6368055555556,50400.0,1,1100.0,530.0,0.2,17.0
2365,50997600,590.25,-0.0004253759840573,0.0004992494090741,-7.3873425016816e-05,-2.6859461079629e-06,3.8238615477601e-06,-1.1379154397972e-06,-16.228219212613,74.884442784609,3.3044592195896,1.6395833333333,50400.0,1,1100.0,530.0,0.2,17.0
2369,51084000,591.25,-0.0004259466751568,0.0004999235539567,-7.3976878799976e-05,-2.696781793116e-06,3.8399923591134e-06,-1.1432105659975e-06,-16.227537907637,74.967142673178,3.3126797999982,1.6423611111111,50400.0,1,1100.0,530.0,0.2,17.0
2373,51170400,592.25,-0.0004265171415749,0.0005005974451724,-7.4080303597488e-05,-2.7076469157293e-06,3.8561694463995e-06,-1.1485225306702e-06,-16.22682907927,75.04894124703,3.3205797732215,1.6451388888889,50400.0,1,1100.0,530.0,0.2,17.0
2377,51256800,593.25,-0.0004270873877869,0.0005012710877605,-7.4183699973591e-05,-2.7185415360305e-06,3.8723929067032e-06,-1.1538513706727e-06,-16.226138771717,75.131238037966,3.3286707113765,1.6479166666667,50400.0,1,1100.0,530.0,0.2,17.0
2381,51343200,594.25,-0.0004276574150981,0.0005019444832799,-7.428706818178e-05,-2.7294656950116e-06,3.8886628080073e-06,-1.1591971129957e-06,-16.225435326578,75.213669677696,3.3368326300951,1.6506944444444,50400.0,1,1100.0,530.0,0.2,17.0
2385,51429600,595.25,-0.000428227220208,0.0005026176277653,-7.4390407557269e-05,-2.7404194258117e-06,3.904979209217e-06,-1.1645597834053e-06,-16.224765942724,75.295552513153,3.3447733446627,1.6534722222222,50400.0,1,1100.0,530.0,0.2,17.0
2389,51516000,596.25,-0.0004287968052115,0.0005032905237352,-7.4493718523692e-05,-2.751402771658e-06,3.9213421821283e-06,-1.1699394104703e-06,-16.224064762971,75.377694711047,3.3528530683668,1.65625,50400.0,1,1100.0,530.0,0.2,17.0
2393,51602400,597.25,-0.0004293662251233,0.0005039632357453,-7.4597010622012e-05,-2.7624159353342e-06,3.9377520207122e-06,-1.1753360853781e-06,-16.221767600323,75.468354687242,3.3647364410816,1.6590277777778,50400.0,1,1100.0,530.0,0.2,17.0
2397,51688800,598.25,-0.0004299353733057,0.000504635638142,-7.4700264836363e-05,-2.7734586454933e-06,3.9542083564709e-06,-1.1807497109776e-06,-16.222720168683,75.542166116845,3.3690625540778,1.6618055555556,50400.0,1,1100.0,530.0,0.2,17.0
2401,51775200,599.25,-0.0004305043006292,0.0005053077909239,-7.4803490294709e-05,-2.7845310887223e-06,3.9707114622437e-06,-1.1861803735215e-06,-16.222035940857,75.624038959849,3.3770668881495,1.6645833333333,50400.0,1,1100.0,530.0,0.2,17.0
2405,51861600,600.25,-0.0004310730091171,0.0005059796963962,-7.4906687279093e-05,-2.7956333110722e-06,3.9872614138343e-06,-1.1916281027621e-06,-16.221364250839,75.706064391793,3.3851257440863,1.6673611111111,50400.0,1,1100.0,530.0,0.2,17.0
2409,51948000,601.25,-0.0004316414981162,0.0005066513537044,-7.5009855588203e-05,-2.8067653529224e-06,4.003858279762e-06,-1.1970929268396e-06,-16.220665527732,75.787962990521,3.3931562967686,1.6701388888889,50400.0,1,1100.0,530.0,0.2,17.0
2413,52034400,602.25,-0.0004322098204595,0.0005073228250969,-7.5113004637394e-05,-2.8179274076866e-06,4.0205023416956e-06,-1.202574934009e-06,-16.218267435924,75.878256803957,3.4050360100439,1.6729166666667,50400.0,1,1100.0,530.0,0.2,17.0
2417,52120800,603.25,-0.0004327779242223,0.000507994049271,-7.5216125048662e-05,-2.8291193644697e-06,4.0371934555628e-06,-1.2080740910931e-06,-16.217600234903,75.960144402409,3.4130760227047,1.6756944444444,50400.0,1,1100.0,530.0,0.2,17.0
2421,52207200,604.25,-0.0004333457556919,0.0005086649628052,-7.5319207113348e-05,-2.8403411068686e-06,4.0539314698184e-06,-1.2135903629498e-06,-16.218601303778,76.033460674389,3.4172550150395,1.6784722222222,50400.0,1,1100.0,530.0,0.2,17.0
2425,52293600,605.25,-0.0004339133675158,0.00050933562781,-7.5422260294202e-05,-2.8515928273489e-06,4.0707166653389e-06,-1.21912383799e-06,-16.217891667875,76.115144735796,3.42527322781,1.68125,50400.0,1,1100.0,530.0,0.2,17.0
2429,52380000,606.25,-0.0004344808151373,0.00051000610953,-7.5525294392697e-05,-2.8628747299004e-06,4.0875493391019e-06,-1.2246746092015e-06,-16.215567140224,76.205425092167,3.4371403819579,1.6840277777778,50400.0,1,1100.0,530.0,0.2,17.0
2433,52466400,607.25,-0.0004350480438817,0.0005106763443359,-7.5628300454204e-05,-2.8741866571065e-06,4.1044292730617e-06,-1.2302426159552e-06,-16.214860207474,76.287228437616,3.4452216025592,1.6868055555556,50400.0,1,1100.0,530.0,0.2,17.0
2437,52552800,608.25,-0.0004356150007408,0.0005113462688295,-7.5731268088719e-05,-2.8855285274301e-06,4.1213563727914e-06,-1.2358278453613e-06,-16.215852799147,76.36036930621,3.44938601003,1.6895833333333,50400.0,1,1100.0,530.0,0.2,17.0
2441,52639200,609.25,-0.0004361817408993,0.0005120159471077,-7.5834206208434e-05,-2.8969005813654e-06,4.138330995182e-06,-1.2414304138166e-06,-16.215127491754,76.442053217224,3.4574659460394,1.6923611111111,50400.0,1,1100.0,530.0,0.2,17.0
2445,52725600,610.25,-0.0004367482646207,0.0005126853803703,-7.5937115749572e-05,-2.9083028200566e-06,4.1553531442295e-06,-1.2470503241729e-06,-16.214479901771,76.523746499991,3.465492084505,1.6951388888889,50400.0,1,1100.0,530.0,0.2,17.0
2449,52812000,611.25,-0.0004373145719573,0.0005133545685659,-7.6039996608576e-05,-2.9197352858861e-06,4.1724228909388e-06,-1.2526876050526e-06,-16.213813482603,76.605401907958,3.473537217271,1.6979166666667,50400.0,1,1100.0,530.0,0.2,17.0
2453,52898400,612.25,-0.0004378806595072,0.0005140235077257,-7.6142848218473e-05,-2.9311980073289e-06,4.1895402861475e-06,-1.2583422788186e-06,-16.21299374839,76.686736240616,3.4815880858368,1.7006944444444,50400.0,1,1100.0,530.0,0.2,17.0
2457,52984800,613.25,-0.0004384465316602,0.0005146922028877,-7.6245671227482e-05,-2.9426910369803e-06,4.2067054147726e-06,-1.2640143777923e-06,-16.212373895883,76.768343559251,3.489607851066,1.7034722222222,50400.0,1,1100.0,530.0,0.2,17.0
2461,53071200,614.25,-0.0004390121858189,0.0005153606510472,-7.6348465228331e-05,-2.9542144061599e-06,4.2239183322897e-06,-1.2697039261297e-06,-16.211705433186,76.849601663275,3.4975238387245,1.70625,50400.0,1,1100.0,530.0,0.2,17.0
2465,53157600,615.25,-0.0004395776268563,0.0005160288568431,-7.645122998675e-05,-2.9657681964641e-06,4.241179169205e-06,-1.2754109727409e-06,-16.21107584298,76.93124482177,3.5055858151219,1.7090277777778,50400.0,1,1100.0,530.0,0.2,17.0
2469,53244000,616.25,-0.0004401428502278,0.0005166968168667,-7.6553966638947e-05,-2.9773523783227e-06,4.2584878843489e-06,-1.2811355060261e-06,-16.210381029604,77.012619300916,3.513600194875,1.7118055555556,50400.0,1,1100.0,530.0,0.2,17.0
2473,53330400,617.25,-0.0004407078551557,0.0005173645290712,-7.6656673915455e-05,-2.9889670207955e-06,4.2758445916776e-06,-1.2868775708821e-06,-16.209605555749,77.093749020981,3.5216076194474,1.7145833333333,50400.0,1,1100.0,530.0,0.2,17.0
2477,53416800,618.25,-0.0004412726457456,0.0005180319982913,-7.6759352545639e-05,-3.0006121731767e-06,4.2932493712098e-06,-1.2926371980331e-06,-16.208967393383,77.175201486959,3.5296270540756,1.7173611111111,50400.0,1,1100.0,530.0,0.2,17.0
2481,53503200,619.25,-0.0004418372736344,0.0005186992853402,-7.6862011705746e-05,-3.0122880338175e-06,4.3107025126795e-06,-1.298414478862e-06,-16.20664421718,77.264904505759,3.5414350990901,1.7201388888889,50400.0,1,1100.0,530.0,0.2,17.0
2485,53589600,620.25,-0.0004424016312823,0.0005193662634093,-7.6964632127054e-05,-3.023994315803e-06,4.3282036245156e-06,-1.3042093087126e-06,-16.207531565136,77.33757569334,3.5456361086038,1.7229166666667,50400.0,1,1100.0,530.0,0.2,17.0
2489,53676000,621.25,-0.0004429657736844,0.0005200329972871,-7.7067223602674e-05,-3.0357312245254e-06,4.3457530057769e-06,-1.3100217812515e-06,-16.206858903265,77.418803281249,3.5536441031599,1.7256944444444,50400.0,1,1100.0,530.0,0.2,17.0
2493,53762400,622.25,-0.0004435297553057,0.0005206995511004,-7.7169795794671e-05,-3.0474989665922e-06,4.3633509577908e-06,-1.3158519911986e-06,-16.204596345359,77.508510249056,3.5654358922633,1.7284722222222,50400.0,1,1100.0,530.0,0.2,17.0
2497,53848800,623.25,-0.0004440934714038,0.0005213658012747,-7.7272329870888e-05,-3.0592972615771e-06,4.3809970976174e-06,-1.3216998360404e-06,-16.205557714196,77.581520700244,3.5697464271296,1.73125,50400.0,1,1100.0,530.0,0.2,17.0
2501,53935200,624.25,-0.0004446569705917,0.0005220318052653,-7.7374834673576e-05,-3.0711262948416e-06,4.3986916966559e-06,-1.3275654018144e-06,-16.204890277484,77.662360672635,3.5776339777652,1.7340277777778,50400.0,1,1100.0,530.0,0.2,17.0
2505,54021600,625.25,-0.0004452202543166,0.0005226975646131,-7.7477310296498e-05,-3.0829861119767e-06,4.4164348300802e-06,-1.3334487181036e-06,-16.204174816359,77.743333076015,3.5856225030006,1.7368055555556,50400.0,1,1100.0,530.0,0.2,17.0
2509,54108000,626.25,-0.0004457833268233,0.0005233630842122,-7.7579757388973e-05,-3.0948767665175e-06,4.4342265840178e-06,-1.3393498175003e-06,-16.203573145278,77.824681859846,3.593679392433,1.7395833333333,50400.0,1,1100.0,530.0,0.2,17.0
2513,54194400,627.25,-0.0004463461851103,0.000524028360593,-7.7682175482762e-05,-3.1067982868823e-06,4.4520670094649e-06,-1.3452687225826e-06,-16.20283673254,77.905723368848,3.6017212844468,1.7423611111111,50400.0,1,1100.0,530.0,0.2,17.0
2517,54280800,628.25,-0.0004469088804754,0.000524693454063,-7.7784573587606e-05,-3.1187508766481e-06,4.4699564043953e-06,-1.3512055277472e-06,-16.200464806206,77.994903534132,3.6134691892311,1.7451388888889,50400.0,1,1100.0,530.0,0.2,17.0
2521,54367200,629.25,-0.0004474713097006,0.000525358242888,-7.7886933187431e-05,-3.1307342525165e-06,4.4878943807222e-06,-1.3571601282057e-06,-16.201483539575,78.067408668295,3.6176289538439,1.7479166666667,50400.0,1,1100.0,530.0,0.2,17.0
2525,54453600,630.25,-0.0004480335253762,0.0005260227891093,-7.7989263733114e-05,-3.1427486162375e-06,4.5058812332792e-06,-1.3631326170417e-06,-16.200823566019,78.148299826184,3.6255965944694,1.7506944444444,50400.0,1,1100.0,530.0,0.2,17.0
2529,54540000,631.25,-0.0004485955286454,0.0005266870939741,-7.8091565328746e-05,-3.1547940113754e-06,4.5239170343385e-06,-1.3691230229631e-06,-16.200167668273,78.229246589919,3.6335993605533,1.7534722222222,50400.0,1,1100.0,530.0,0.2,17.0
2533,54626400,632.25,-0.0004491573695118,0.0005273512164533,-7.8193846941552e-05,-3.1668706321494e-06,4.5420020675293e-06,-1.3751314353799e-06,-16.197743164336,78.318323667156,3.6453962500201,1.75625,50400.0,1,1100.0,530.0,0.2,17.0
2537,54712800,633.25,-0.0004497189971809,0.0005280150965241,-7.8296099343224e-05,-3.1789783630628e-06,4.5601361818887e-06,-1.3811578188259e-06,-16.197048977529,78.399116882223,3.6533875260559,1.7590277777778,50400.0,1,1100.0,530.0,0.2,17.0
2541,54799200,634.25,-0.0004502803593244,0.0005286786724562,-7.8398313131837e-05,-3.1911170785012e-06,4.5783192116874e-06,-1.3872021331862e-06,-16.198068722091,78.47140298007,3.657518098057,1.7618055555556,50400.0,1,1100.0,530.0,0.2,17.0
2545,54885600,635.25,-0.0004508415087102,0.000529342006522,-7.8500497811793e-05,-3.2032869812093e-06,4.596551452882e-06,-1.3932644716727e-06,-16.19741257355,78.55209330953,3.6654673724569,1.7645833333333,50400.0,1,1100.0,530.0,0.2,17.0
2549,54972000,636.25,-0.0004514024435479,0.0005300050965289,-7.8602652980999e-05,-3.215488103387e-06,4.6148329613628e-06,-1.3993448579758e-06,-16.196649213377,78.63256583111,3.6734355304457,1.7673611111111,50400.0,1,1100.0,530.0,0.2,17.0
2553,55058400,637.25,-0.0004519631690802,0.0005306679485323,-7.8704779452161e-05,-3.2277205033626e-06,4.6331638303314e-06,-1.4054433269688e-06,-16.196018367181,78.713541429073,3.6814930200834,1.7701388888889,50400.0,1,1100.0,530.0,0.2,17.0
2557,55144800,638.25,-0.0004525236814632,0.0005313305580418,-7.8806876578537e-05,-3.2399842061404e-06,4.6515441055683e-06,-1.4115598994279e-06,-16.195246473899,78.794087001001,3.6895169080654,1.7729166666667,50400.0,1,1100.0,530.0,0.2,17.0
2561,55231200,639.25,-0.0004530839811807,0.0005319929255554,-7.8908944374742e-05,-3.2522792531429e-06,4.6699738567059e-06,-1.417694603563e-06,-16.194638368479,78.874461826844,3.6973677933434,1.7756944444444,50400.0,1,1100.0,530.0,0.2,17.0
2565,55317600,640.25,-0.000453644122846,0.0005326551153799,-7.9010992533916e-05,-3.2646058577891e-06,4.6884533947162e-06,-1.4238475369271e-06,-16.192333500853,78.963515306562,3.7091515376188,1.7784722222222,50400.0,1,1100.0,530.0,0.2,17.0
2569,55404000,641.25,-0.000454204002162,0.0005333170053571,-7.911300319504e-05,-3.2769636895838e-06,4.7069822566483e-06,-1.4300185670645e-06,-16.193407258417,79.035855765733,3.7133385829171,1.78125,50400.0,1,1100.0,530.0,0.2,17.0
2573,55490400,642.25,-0.0004547637208552,0.0005339787136738,-7.921499281868e-05,-3.2893531916097e-06,4.7255610949975e-06,-1.4362079033879e-06,-16.190998871653,79.124459898028,3.725059392314,1.7840277777778,50400.0,1,1100.0,530.0,0.2,17.0
2577,55576800,643.25,-0.0004553231730078,0.0005346401162783,-7.9316943270511e-05,-3.3017740244868e-06,4.7441894338732e-06,-1.4424154093864e-06,-16.191877939754,79.196178155104,3.7291858159937,1.7868055555556,50400.0,1,1100.0,530.0,0.2,17.0
2581,55663200,644.25,-0.0004558824156753,0.0005353012804939,-7.9418864818576e-05,-3.3142264087583e-06,4.7628675952789e-06,-1.4486411865206e-06,-16.191252039882,79.276738712813,3.7371704310584,1.7895833333333,50400.0,1,1100.0,530.0,0.2,17.0
2585,55749600,645.25,-0.0004564414463313,0.0005359622031669,-7.9520756835642e-05,-3.3267103739991e-06,4.7815956297971e-06,-1.4548852557981e-06,-16.190534124299,79.356943712244,3.7451023039768,1.7923611111111,50400.0,1,1100.0,530.0,0.2,17.0
2589,55836000,646.25,-0.0004570002670536,0.0005366228867349,-7.9622619681325e-05,-3.3392259662387e-06,4.800373613942e-06,-1.4611476477033e-06,-16.189871974944,79.437301418457,3.7530633579246,1.7951388888889,50400.0,1,1100.0,530.0,0.2,17.0
2593,55922400,647.25,-0.0004575588784801,0.0005372833318889,-7.9724453408769e-05,-3.3517732277366e-06,4.819201618109e-06,-1.4674283903724e-06,-16.189239645618,79.517672303962,3.7610221291849,1.7979166666667,50400.0,1,1100.0,530.0,0.2,17.0
2597,56008800,648.25,-0.0004581172819353,0.0005379435401747,-7.9826258239451e-05,-3.3643522006867e-06,4.8380797124418e-06,-1.4737275117551e-06,-16.188622398914,79.598129771741,3.7689997339625,1.8006944444444,50400.0,1,1100.0,530.0,0.2,17.0
2601,56095200,649.25,-0.0004586754740103,0.000538603507558,-7.992803354772e-05,-3.3769629132447e-06,4.857007947295e-06,-1.4800450340503e-06,-16.187905445757,79.678194020259,3.7769324662361,1.8034722222222,50400.0,1,1100.0,530.0,0.2,17.0
2605,56181600,650.25,-0.0004592334556642,0.0005392632351751,-8.0029779510847e-05,-3.3896054063876e-06,4.8759863912413e-06,-1.4863809848537e-06,-16.187220409279,79.758303402047,3.7848595380245,1.80625,50400.0,1,1100.0,530.0,0.2,17.0
2609,56268000,651.25,-0.0004597912265968,0.000539922723451,-8.013149685418e-05,-3.4022796806068e-06,4.8950150472947e-06,-1.4927353666879e-06,-16.186547988557,79.838429317332,3.7927945974813,1.8090277777778,50400.0,1,1100.0,530.0,0.2,17.0
2613,56354400,652.25,-0.0004603488431909,0.0005405820369602,-8.0233193769252e-05,-3.414986039279e-06,4.9140943708209e-06,-1.4991083315419e-06,-16.184218446405,79.927168827267,3.804620285906,1.8118055555556,50400.0,1,1100.0,530.0,0.2,17.0
2617,56440800,653.25,-0.0004609061981893,0.0005412410500848,-8.0334851895517e-05,-3.4277241330842e-06,4.9332238720237e-06,-1.5054997389395e-06,-16.185234348688,79.998771401756,3.8087197519914,1.8145833333333,50400.0,1,1100.0,530.0,0.2,17.0
2621,56527200,654.25,-0.0004614633959908,0.0005418998859644,-8.043648997368e-05,-3.4404943407489e-06,4.9524040951218e-06,-1.5119097543729e-06,-16.182885837716,80.087217891207,3.8204752942547,1.8173611111111,50400.0,1,1100.0,530.0,0.2,17.0
2625,56613600,655.25,-0.0004620203325638,0.0005425584218256,-8.0538089261789e-05,-3.4532963619765e-06,4.9716346277899e-06,-1.5183382658134e-06,-16.183876590815,80.158775725249,3.824597318271,1.8201388888889,50400.0,1,1100.0,530.0,0.2,17.0
2629,56700000,656.25,-0.000462577059315,0.0005432167184462,-8.0639659131178e-05,-3.466130400665e-06,4.990915768897e-06,-1.524785368232e-06,-16.183192878709,80.238622516318,3.8324934417597,1.8229166666667,50400.0,1,1100.0,530.0,0.2,17.0
2633,56786400,657.25,-0.000463133630757,0.0005438748398055,-8.0741209048473e-05,-3.478996677324e-06,5.0102478380968e-06,-1.5312511607729e-06,-16.180837055289,80.327105867566,3.8442969677497,1.8256944444444,50400.0,1,1100.0,530.0,0.2,17.0
2637,56872800,658.25,-0.0004636899396906,0.0005445326595804,-8.0842719889819e-05,-3.4918948784985e-06,5.0296304051839e-06,-1.5377355266855e-06,-16.181769827276,80.398405933265,3.8484044820678,1.8284722222222,50400.0,1,1100.0,530.0,0.2,17.0
2641,56959200,659.25,-0.0004642460402403,0.0005451902424199,-8.0944202179592e-05,-3.5048251778569e-06,5.0490637163504e-06,-1.5442385384935e-06,-16.181144162084,80.478340184738,3.856335914467,1.83125,50400.0,1,1100.0,530.0,0.2,17.0
2645,57045600,660.25,-0.0004648019333908,0.0005458475876643,-8.1045654273534e-05,-3.5177877015522e-06,5.0685479788923e-06,-1.55076027734e-06,-16.180472498179,80.558090018142,3.8642286052705,1.8340277777778,50400.0,1,1100.0,530.0,0.2,17.0
2649,57132000,661.25,-0.0004653576201144,0.0005465046973245,-8.1147077210116e-05,-3.5307824477959e-06,5.0880831912629e-06,-1.5573007434671e-06,-16.179850459541,80.637981856592,3.8721549510108,1.8368055555556,50400.0,1,1100.0,530.0,0.2,17.0
2653,57218400,662.25,-0.0004659130978968,0.0005471615683858,-8.1248470488996e-05,-3.54380944893e-06,5.1076694102848e-06,-1.5638599613548e-06,-16.179145107718,80.717567044197,3.8800463884129,1.8395833333333,50400.0,1,1100.0,530.0,0.2,17.0
2657,57304800,663.25,-0.0004664684217787,0.0005478182657065,-8.1349843927776e-05,-3.5568689261724e-06,5.1273069579455e-06,-1.5704380317731e-06,-16.176850843062,80.8058455608,3.8917992182389,1.8423611111111,50400.0,1,1100.0,530.0,0.2,17.0
2661,57391200,664.25,-0.0004670234864294,0.0005484746649807,-8.1451178551356e-05,-3.5699605706983e-06,5.1469954101464e-06,-1.5770348394482e-06,-16.177861551152,80.877083115059,3.895885665913,1.8451388888889,50400.0,1,1100.0,530.0,0.2,17.0
2665,57477600,665.25,-0.00046757834419,0.0005491308280102,-8.1552483820247e-05,-3.5830845920933e-06,5.1667350725184e-06,-1.583650480425e-06,-16.177196066793,80.956766303499,3.9038123570278,1.8479166666667,50400.0,1,1100.0,530.0,0.2,17.0
2669,57564000,666.25,-0.000468132992152,0.0005497867512854,-8.1653759133467e-05,-3.596241021115e-06,5.186525999429e-06,-1.590284978314e-06,-16.176419516163,81.036086745641,3.911707517165,1.8506944444444,50400.0,1,1100.0,530.0,0.2,17.0
2673,57650400,667.25,-0.000468687487736,0.000550442502454,-8.1755014718003e-05,-3.6094300874914e-06,5.2063685250889e-06,-1.5969384375975e-06,-16.174165842848,81.124298475354,3.9234485144419,1.8534722222222,50400.0,1,1100.0,530.0,0.2,17.0
2677,57736800,668.25,-0.000469241724127,0.000551097955495,-8.1856231368051e-05,-3.6226514740976e-06,5.2262622130885e-06,-1.6036107389909e-06,-16.175115561425,81.195382088954,3.9275765940019,1.85625,50400.0,1,1100.0,530.0,0.2,17.0
2681,57823200,669.25,-0.0004697957521783,0.0005517531703901,-8.1957418211856e-05,-3.6359053897051e-06,5.2462073689981e-06,-1.610301979293e-06,-16.174421339902,81.274653772426,3.9354158750341,1.8590277777778,50400.0,1,1100.0,530.0,0.2,17.0
2685,57909600,670.25,-0.0004703496271385,0.0005524082122045,-8.205858506598e-05,-3.6491920581977e-06,5.2662043186388e-06,-1.6170122604411e-06,-16.172137650882,81.362630902925,3.9471378363679,1.8618055555556,50400.0,1,1100.0,530.0,0.2,17.0
2689,57996000,671.25,-0.0004709032971422,0.0005530630198149,-8.2159722672701e-05,-3.6625113449211e-06,5.2862528837605e-06,-1.6237415388393e-06,-16.171493010732,81.44218899422,3.9550666778321,1.8645833333333,50400.0,1,1100.0,530.0,0.2,17.0
2693,58082400,672.25,-0.0004714567059435,0.0005537175267267,-8.2260820783224e-05,-3.6758630991347e-06,5.306352860497e-06,-1.6304897613623e-06,-16.172377923101,81.512846461613,3.9591288741,1.8673611111111,50400.0,1,1100.0,530.0,0.2,17.0
2697,58168800,673.25,-0.000472009914765,0.0005543718051163,-8.2361890351287e-05,-3.6892475635523e-06,5.3265046021432e-06,-1.6372570385909e-06,-16.171831455228,81.592836504725,3.9671722341348,1.8701388888889,50400.0,1,1100.0,530.0,0.2,17.0
2701,58255200,674.25,-0.0004725629165944,0.0005550258467588,-8.2462930164417e-05,-3.70266475238e-06,5.3467081398529e-06,-1.6440433874728e-06,-16.171176733288,81.671933055799,3.97498396256,1.8729166666667,50400.0,1,1100.0,530.0,0.2,17.0
2705,58341600,675.25,-0.0004731157118397,0.0005556796521103,-8.2563940270647e-05,-3.7161147059987e-06,5.3669635412301e-06,-1.6508488352315e-06,-16.170445044408,81.751103357861,3.9828803583149,1.8756944444444,50400.0,1,1100.0,530.0,0.2,17.0
2709,58428000,676.25,-0.0004736683539499,0.0005563332841315,-8.2664930181576e-05,-3.7295976465338e-06,5.3872711305539e-06,-1.6576734840201e-06,-16.168111027157,81.83878070069,3.9945841786249,1.8784722222222,50400.0,1,1100.0,530.0,0.2,17.0
2713,58514400,677.25,-0.0004742207380998,0.0005569866191384,-8.2765881038518e-05,-3.7431132552029e-06,5.4076304681546e-06,-1.6645172129517e-06,-16.169119459545,81.909413965801,3.998604488537,1.88125,50400.0,1,1100.0,530.0,0.2,17.0
2717,58600800,678.25,-0.0004747729193256,0.0005576397219945,-8.2866802668901e-05,-3.7566617575824e-06,5.428041882667e-06,-1.6713801250846e-06,-16.168436544377,81.988867050649,4.0066097941312,1.8840277777778,50400.0,1,1100.0,530.0,0.2,17.0
2721,58687200,679.25,-0.0004753248957142,0.00055829259044,-8.2967694725733e-05,-3.7702431839831e-06,5.4485054275361e-06,-1.678262243553e-06,-16.167805056574,82.067929838312,4.0144473047718,1.8868055555556,50400.0,1,1100.0,530.0,0.2,17.0
2725,58773600,680.25,-0.0004758766663201,0.0005589452233643,-8.3068557044169e-05,-3.7838575700722e-06,5.4690211638564e-06,-1.6851635937842e-06,-16.167116019849,82.146883257372,4.0222900766514,1.8895833333333,50400.0,1,1100.0,530.0,0.2,17.0
2729,58860000,681.25,-0.0004764282338211,0.000559597623836,-8.316939001492e-05,-3.7975049649304e-06,5.4895891712868e-06,-1.6920842063564e-06,-16.16642185106,82.226131790123,4.0302600938045,1.8923611111111,50400.0,1,1100.0,530.0,0.2,17.0
2733,58946400,682.25,-0.0004769795953116,0.0005602497884386,-8.3270193126959e-05,-3.8111853953658e-06,5.5102094985168e-06,-1.699024103151e-06,-16.165749182853,82.30489843146,4.038043813621,1.8951388888889,50400.0,1,1100.0,530.0,0.2,17.0
2737,59032800,683.25,-0.0004775307532508,0.0005609017199896,-8.3370966738853e-05,-3.8248989083558e-06,5.5308822217949e-06,-1.7059833134391e-06,-16.165113738257,82.383906505431,4.0459136628909,1.8979166666667,50400.0,1,1100.0,530.0,0.2,17.0
2741,59119200,684.25,-0.0004780817088278,0.0005615534198639,-8.3471711036153e-05,-3.8386455453126e-06,5.5516074100163e-06,-1.7129618647038e-06,-16.164468153771,82.463024253229,4.0538331278062,1.9006944444444,50400.0,1,1100.0,530.0,0.2,17.0
2745,59205600,685.25,-0.0004786324611046,0.0005622048868985,-8.3572425793912e-05,-3.8524253430276e-06,5.5723851260163e-06,-1.7199597829887e-06,-16.16381459887,82.541960483228,4.0617021420513,1.9034722222222,50400.0,1,1100.0,530.0,0.2,17.0
2749,59292000,686.25,-0.0004791830621644,0.0005628561825042,-8.3673120339732e-05,-3.8662385212624e-06,5.5932156905412e-06,-1.7269771692788e-06,-16.161484037909,82.629327078587,4.0734082948153,1.90625,50400.0,1,1100.0,530.0,0.2,17.0
2753,59378400,687.25,-0.0004797334099649,0.0005635071862197,-8.3773776254788e-05,-3.8800847653941e-06,5.6140986696601e-06,-1.734013904266e-06,-16.162493361583,82.699987921674,4.0775421710271,1.9090277777778,50400.0,1,1100.0,530.0,0.2,17.0
2757,59464800,688.25,-0.0004802836046529,0.0005641580162359,-8.3874411582951e-05,-3.8939644601056e-06,5.6350346172058e-06,-1.7410701571002e-06,-16.16016071007,82.787019412633,4.0891489887865,1.9118055555556,50400.0,1,1100.0,530.0,0.2,17.0
2761,59551200,689.25,-0.0004808335960746,0.0005648086132853,-8.3975017210768e-05,-3.9078774718805e-06,5.6560233553475e-06,-1.748145883467e-06,-16.159515299531,82.865741565213,4.096979513968,1.9145833333333,50400.0,1,1100.0,530.0,0.2,17.0
2765,59637600,690.25,-0.000481383331718,0.0005654589154187,-8.407558370069e-05,-3.9218236548916e-06,5.677064688216e-06,-1.7552410333244e-06,-16.160457877466,82.935985710166,4.101048330157,1.9173611111111,50400.0,1,1100.0,530.0,0.2,17.0
2769,59724000,691.25,-0.0004819328629995,0.0005661089833357,-8.4176120336181e-05,-3.9358032238563e-06,5.6981589296068e-06,-1.7623557057506e-06,-16.159740213537,83.01454223542,4.1088819657227,1.9201388888889,50400.0,1,1100.0,530.0,0.2,17.0
2773,59810400,692.25,-0.0004824821926394,0.0005667588201101,-8.4276627470676e-05,-3.9498162264181e-06,5.7193061569054e-06,-1.7694899304874e-06,-16.159099664042,83.093283509879,4.1167610250323,1.9229166666667,50400.0,1,1100.0,530.0,0.2,17.0
2777,59896800,693.25,-0.0004830313718062,0.0005674084870256,-8.4377115219431e-05,-3.9638628355261e-06,5.7405066151017e-06,-1.7766437795756e-06,-16.1568376354,83.180450314305,4.1284270973554,1.9256944444444,50400.0,1,1100.0,530.0,0.2,17.0
2781,59983200,694.25,-0.0004835802972178,0.0005680578603286,-8.4477563110767e-05,-3.9779428186036e-06,5.7617600057545e-06,-1.7838171871509e-06,-16.157785048763,83.250530638761,4.1324729258489,1.9284722222222,50400.0,1,1100.0,530.0,0.2,17.0
2785,60069600,695.25,-0.0004841290205549,0.0005687070019162,-8.4577981361271e-05,-3.9920563487153e-06,5.7830665740228e-06,-1.7910102253075e-06,-16.157108504852,83.329100155402,4.1403348239807,1.93125,50400.0,1,1100.0,530.0,0.2,17.0
2789,60156000,696.25,-0.0004846775960743,0.0005693559757026,-8.4678379628348e-05,-4.0062036565022e-06,5.8044266562158e-06,-1.7982229997137e-06,-16.154871941097,83.416268515028,4.1520108552346,1.9340277777778,50400.0,1,1100.0,530.0,0.2,17.0
2793,60242400,697.25,-0.0004852259687243,0.0005700047176749,-8.4778748950617e-05,-4.020384540875e-06,5.8258399685498e-06,-1.8054554276749e-06,-16.154199203984,83.494776150356,4.1598735163949,1.9368055555556,50400.0,1,1100.0,530.0,0.2,17.0
2797,60328800,698.25,-0.0004857740893878,0.0005706531679527,-8.4879078564868e-05,-4.0345989575789e-06,5.8473064786893e-06,-1.8127075211104e-06,-16.155202894825,83.56480947459,4.1639060255708,1.9395833333333,50400.0,1,1100.0,530.0,0.2,17.0
2801,60415200,699.25,-0.0004863220088748,0.0005713013874571,-8.4979378582304e-05,-4.0488470761786e-06,5.8688264265678e-06,-1.8199793503892e-06,-16.154560432096,83.64325036714,4.1717359220788,1.9423611111111,50400.0,1,1100.0,530.0,0.2,17.0
2805,60501600,700.25,-0.0004868697272742,0.0005719493762413,-8.5079648967105e-05,-4.0631289343615e-06,5.8903998755864e-06,-1.827270941225e-06,-16.153884852737,83.721644106084,4.1796006365764,1.9451388888889,50400.0,1,1100.0,530.0,0.2,17.0
2809,60588000,701.25,-0.0004874172454002,0.0005725971352135,-8.517988981325e-05,-4.0774445744524e-06,5.9120268962896e-06,-1.8345823218371e-06,-16.153212057059,83.800078462385,4.1874777820249,1.9479166666667,50400.0,1,1100.0,530.0,0.2,17.0
2813,60674400,702.25,-0.000487964562446,0.000573244663418,-8.5280100972072e-05,-4.0917940296156e-06,5.9337075456464e-06,-1.8419135160308e-06,-16.15256512688,83.878328047159,4.195280398613,1.9506944444444,50400.0,1,1100.0,530.0,0.2,17.0
2817,60760800,703.25,-0.0004885116777205,0.0005738919600205,-8.5380282299973e-05,-4.1061773360496e-06,5.955441885236e-06,-1.8492645491864e-06,-16.151860754124,83.956479408466,4.2031059020713,1.9534722222222,50400.0,1,1100.0,530.0,0.2,17.0
2821,60847200,704.25,-0.0004890585931486,0.000574539027191,-8.5480434042376e-05,-4.1205945396686e-06,5.9772299899445e-06,-1.8566354502759e-06,-16.151157619551,84.034843819811,4.2110276454339,1.95625,50400.0,1,1100.0,530.0,0.2,17.0
2825,60933600,705.25,-0.0004896053092739,0.0005751858655675,-8.5580556293667e-05,-4.1350456799253e-06,5.9990719261521e-06,-1.8640262462269e-06,-16.150530837006,84.113149961847,4.2188715489059,1.9590277777778,50400.0,1,1100.0,530.0,0.2,17.0
2829,61020000,706.25,-0.000490151825002,0.0005758324739454,-8.5680648943389e-05,-4.1495307863538e-06,6.0209677456269e-06,-1.8714369592732e-06,-16.149906650308,84.191247685222,4.2266359894515,1.9618055555556,50400.0,1,1100.0,530.0,0.2,17.0
2833,61106400,707.25,-0.0004906981407897,0.000576478852694,-8.5780711904273e-05,-4.1640499031437e-06,6.0429175215992e-06,-1.8788676184555e-06,-16.14922820386,84.269377550033,4.2344782408,1.9645833333333,50400.0,1,1100.0,530.0,0.2,17.0
2837,61192800,708.25,-0.0004912442584478,0.0005771250038693,-8.5880745421562e-05,-4.1786030754727e-06,6.0649213280729e-06,-1.8863182526002e-06,-16.148622871292,84.347617984122,4.2423213092785,1.9673611111111,50400.0,1,1100.0,530.0,0.2,17.0
2841,61279200,709.25,-0.0004917902283172,0.000577770986897,-8.5980758579779e-05,-4.1931905222728e-06,6.0869794848797e-06,-1.8937889626069e-06,-16.146286521882,84.434180396523,4.2539894814647,1.9701388888889,50400.0,1,1100.0,530.0,0.2,17.0
2845,61365600,710.25,-0.0004923359994024,0.0005784167415343,-8.6080742131953e-05,-4.2078120991167e-06,6.1090917980249e-06,-1.9012796989082e-06,-16.145639453575,84.512305644936,4.2618379937469,1.9729166666667,50400.0,1,1100.0,530.0,0.2,17.0
2849,61452000,711.25,-0.0004928815714272,0.0005790622674031,-8.6180695975908e-05,-4.2224678449261e-06,6.1312583331899e-06,-1.9087904882638e-06,-16.144967009773,84.590367344191,4.2696916833454,1.9756944444444,50400.0,1,1100.0,530.0,0.2,17.0
2853,61538400,712.25,-0.0004934268891067,0.0005797075003093,-8.6280611202611e-05,-4.2371575456754e-06,6.1534787874782e-06,-1.9163212418028e-06,-16.145952631258,84.659622450803,4.2736097474692,1.9784722222222,50400.0,1,1100.0,530.0,0.2,17.0
2857,61624800,713.25,-0.0004939720079581,0.0005803525037891,-8.6380495831027e-05,-4.2518815342701e-06,6.175753661884e-06,-1.9238721276139e-06,-16.145231552794,84.737493588091,4.2814560989183,1.98125,50400.0,1,1100.0,530.0,0.2,17.0
2861,61711200,714.25,-0.000494516929122,0.0005809972800966,-8.6480350974639e-05,-4.2666398047509e-06,6.1980829482918e-06,-1.9314431435409e-06,-16.144623253043,84.815465815541,4.2892607758511,1.9840277777778,50400.0,1,1100.0,530.0,0.2,17.0
2865,61797600,715.25,-0.0004950616523964,0.0005816418289714,-8.6580176575082e-05,-4.2814323935287e-06,6.2204667081568e-06,-1.9390343146281e-06,-16.143969377367,84.893406493417,4.2971049809496,1.9868055555556,50400.0,1,1100.0,530.0,0.2,17.0
2869,61884000,716.25,-0.000495606230639,0.000582286212682,-8.6679982043001e-05,-4.2962595334007e-06,6.2429052812878e-06,-1.9466457478871e-06,-16.141724691458,84.979846989456,4.3087446047317,1.9895833333333,50400.0,1,1100.0,530.0,0.2,17.0
2873,61970400,717.25,-0.0004961505583642,0.0005829303067998,-8.6779748435588e-05,-4.3111208766867e-06,6.2653981859877e-06,-1.954277309301e-06,-16.142657762796,85.049164147714,4.3127761710465,1.9923611111111,50400.0,1,1100.0,530.0,0.2,17.0
2877,62056800,718.25,-0.0004966946876699,0.0005835741727655,-8.6879485095667e-05,-4.3260166493369e-06,6.2879457517482e-06,-1.9619291024113e-06,-16.141983217144,85.126907969986,4.3206012277581,1.9951388888889,50400.0,1,1100.0,530.0,0.2,17.0
2881,62143200,719.25,-0.0004972386713777,0.0005842178728435,-8.6979201465826e-05,-4.3409470846373e-06,6.3105483193961e-06,-1.9696012347588e-06,-16.139729611035,85.21312330906,4.3321945275952,1.9979166666667,50400.0,1,1100.0,530.0,0.2,17.0
2885,62229600,720.25,-0.000497782405116,0.0005848612848167,-8.7078879700659e-05,-4.3559117885131e-06,6.3332053309416e-06,-1.9772935424285e-06,-16.140728449275,85.282446974849,4.3362141212138,2.0006944444444,50400.0,1,1100.0,530.0,0.2,17.0
2889,62316000,721.25,-0.0004983259398074,0.000585504466876,-8.7178527068654e-05,-4.3709110803578e-06,6.3559172689163e-06,-1.9850061885586e-06,-16.140010802269,85.359818721872,4.3439654689258,2.0034722222222,50400.0,1,1100.0,530.0,0.2,17.0
2893,62402400,722.25,-0.0004988692787223,0.0005861474237732,-8.727814505094e-05,-4.3859449608027e-06,6.3786841338839e-06,-1.9927391730812e-06,-16.139395252624,85.43760676404,4.3518023173411,2.00625,50400.0,1,1100.0,530.0,0.2,17.0
2897,62488800,723.25,-0.0004994124730796,0.0005867902159733,-8.737774289376e-05,-4.4010136593865e-06,6.4015062625091e-06,-2.0004926031227e-06,-16.1371243484,85.52376931912,4.3634325254723,2.0090277777778,50400.0,1,1100.0,530.0,0.2,17.0
2901,62575200,724.25,-0.0004999554194552,0.0005874327212211,-8.7477301765887e-05,-4.4161168310439e-06,6.4243831738911e-06,-2.0082663428472e-06,-16.138083398694,85.592965701468,4.367480025081,2.0118055555556,50400.0,1,1100.0,530.0,0.2,17.0
2904,62596800,724.5,-0.0004999554194552,0.0005874327212211,-8.7477301765887e-05,-4.4161168310439e-06,6.4243831738911e-06,-2.0082663428472e-06,0.7373340149654,106.80663014295,46.298932149211,2.0125,90000.0,3,25.0,25.0,0.1,0.1
