,time,days,metal_creep_strain_rr,metal_creep_strain_tt,metal_creep_strain_zz,oxide_creep_strain_rr,oxide_creep_strain_tt,oxide_creep_strain_zz,oxide_stress_rr,oxide_stress_tt,oxide_stress_zz,years,dt,state,T_gas,T_steam,p_gas,p_steam
22,86400.0,1.0,-9.6118002853496e-07,1.2773798602556e-06,-3.1619983172062e-07,-6.172052741821701e-10,6.976979533532901e-10,-8.049267917112299e-11,-16.699418394293,18.543297112054997,-2.3395823034425,0.0027777777777778,50400.0,1.0,1100.0,530.0,0.2,17.0
26,172800.0,2.0,-1.9007208479216e-06,2.5252181206733997e-06,-6.2449727275175e-07,-1.2551445279593e-09,1.4211110426113e-09,-1.6596651465198998e-10,-16.697882853305,18.725993684785,-2.3298766551325,0.0055555555555556,50400.0,1.0,1100.0,530.0,0.2,17.0
30,259200.0,3.0,-2.8113425225552e-06,3.7348374947701004e-06,-9.2349497221483e-07,-1.9021677693686e-09,2.1565909116015e-09,-2.5442314223290997e-10,-16.696387548986,18.903903343236,-2.3204317260978,0.0083333333333333,50400.0,1.0,1100.0,530.0,0.2,17.0
34,345600.0,4.0,-3.6960257955918e-06,4.9102329284891e-06,-1.2142071328972e-06,-2.5581363411543e-09,2.9039721196551e-09,-3.4583577850083997e-10,-16.69492909568,19.077428823756,-2.3112330547621,0.011111111111111,50400.0,1.0,1100.0,530.0,0.2,17.0
38,432000.0,5.0,-4.5572504567909e-06,6.0547240942878e-06,-1.4974736374969e-06,-3.2229237395866e-09,3.6631044591378e-09,-4.4018071955128e-10,-16.693504566076,19.24691838243,-2.3022638681884,0.013888888888889,50400.0,1.0,1100.0,530.0,0.2,17.0
42,518400.0,6.0,-5.3971102162480995e-06,7.1711098297217e-06,-1.7739996134736e-06,-3.8964140373713e-09,4.4338508698537994e-09,-5.3743683248247e-10,-16.69211141916,19.412674293932,-2.2935076509548,0.016666666666667,50400.0,1.0,1100.0,530.0,0.2,17.0
46,604800.0,7.0,-6.2173915268858e-06,8.2617747364765e-06,-2.0443832095907e-06,-4.5785005088496e-09,5.2160856667839e-09,-6.375851579342401e-10,-16.690747437247,19.574960368895,-2.2849490491735,0.019444444444444,50400.0,1.0,1100.0,530.0,0.2,17.0
50,691200.0,8.0,-7.019626521109799e-06,9.3287616651573e-06,-2.3091351440475e-06,-5.2690844558457e-09,6.0096930467526e-09,-7.4060859090685e-10,-16.689410673898,19.734008201514,-2.2765741354139997,0.022222222222222,50400.0,1.0,1100.0,530.0,0.2,17.0
54,777600.0,9.0,-7.8051432159314e-06,1.0373839049881e-05,-2.5686958339494e-06,-5.968074220744e-09,6.8145658433854e-09,-8.4649162264132e-10,-16.688099408382,19.890022439238997,-2.2683703875785,0.025,50400.0,1.0,1100.0,530.0,0.2,17.0
58,864000.0,10.0,-8.5751015064712e-06,1.1398549498322e-05,-2.8234479918507998e-06,-6.675384345987099e-09,7.630604472469699e-09,-9.5522012648255e-10,-16.68681211289,20.043184915129,-2.2603266023522997,0.027777777777778,50400.0,1.0,1100.0,530.0,0.2,17.0
62,950400.0,11.0,-9.3305215304559e-06,1.2404248058803999e-05,-3.0737265283483e-06,-7.390934867442e-09,8.4577160489123e-09,-1.0667811814703e-09,-16.685547421805,20.193658164365,-2.25243275062,0.030555555555556002,50400.0,1.0,1100.0,530.0,0.2,17.0
66,1036800.0,12.0,-1.0072306258347e-05,1.3392132677663e-05,-3.3198264193159e-06,-8.1146507083277e-09,9.2958136316295e-09,-1.1811629233018e-09,-16.684304106082,20.341588217298,-2.2446798429967,0.03333333333333299,50400.0,1.0,1100.0,530.0,0.2,17.0
70,1123200.0,13.0,-1.0801259669360001e-05,1.4363268689648001e-05,-3.5620090202881005e-06,-8.846461162032099e-09,1.0144815580875e-08,-1.2983544188429e-09,-16.683081059389,20.487106891227,-2.2370598126231,0.036111111111111,50400.0,1.0,1100.0,530.0,0.2,17.0
74,1209600.0,14.0,-1.151810150896e-05,1.5318608689541e-05,-3.8005071805807e-06,-9.5862994477961e-09,1.1004645007394e-08,-1.4183455595979998e-09,-16.681877274724,20.630333772622002,-2.2295653887815,0.038888888888889,50400.0,1.0,1100.0,530.0,0.2,17.0
78,1296000.0,15.0,-1.2223479371167e-05,1.6259008791066e-05,-4.0355294198986e-06,-1.0334102327013e-08,1.1875229297733e-08,-1.5411269707201e-09,-16.68069183738,20.771377775058998,-2.222190008517,0.041666666666667,50400.0,1.0,1100.0,530.0,0.2,17.0
82,1382400.0,16.0,-1.2917978666285e-05,1.7185242031646e-05,-4.2672633653608e-06,-1.1089809769048999e-08,1.2756499701574e-08,-1.6666899325253e-09,-16.679523912099,20.910338504491,-2.2149277248583,0.044444444444444,50400.0,1.0,1100.0,530.0,0.2,17.0
86,1468800.0,17.0,-1.3602130907164999e-05,1.8098009508816e-05,-4.495878601650799e-06,-1.1853364664278998e-08,1.3648390978268999e-08,-1.7950263139897e-09,-16.678372726415,21.047307432467,-2.2077731219316,0.047222222222222,50400.0,1.0,1100.0,530.0,0.2,17.0
90,1555200.0,18.0,-1.4276420714338e-05,1.8997949783654002e-05,-4.7215290693167996e-06,-1.2624712688447e-08,1.4550841230537e-08,-1.9261285420906e-09,-16.67723873928,21.182397548877002,-2.2007146543372,0.05,50400.0,1.0,1100.0,530.0,0.2,17.0
94,1641600.0,19.0,-1.494129203076e-05,1.9885646990123e-05,-4.944354959363599e-06,-1.3403803687440001e-08,1.5463793593226998e-08,-2.0599899057864e-09,-16.676161023596002,21.316069072111002,-2.1936640552938,0.05277777777777801,50400.0,1.0,1100.0,530.0,0.2,17.0
98,1728000.0,20.0,-1.5597152411317003e-05,2.0761637185917998e-05,-5.1644847746015e-06,-1.4190587906145001e-08,1.6387191638797e-08,-2.1966037326524997e-09,-16.675092842753,21.447981325364,-2.1867070474961,0.055555555555556,50400.0,1.0,1100.0,530.0,0.2,17.0
102,1814400.0,21.0,-1.6244375362260997e-05,2.1626410576664002e-05,-5.3820352144036e-06,-1.49850176293e-08,1.7320981361882e-08,-2.3359637325810998e-09,-16.674034556859,21.578193274305,-2.1798419046391,0.058333333333333,50400.0,1.0,1100.0,530.0,0.2,17.0
106,1900800.0,22.0,-1.6883308430255e-05,2.2480423671984e-05,-5.5971152417293e-06,-1.5787046389038e-08,1.8265110193908e-08,-2.4780638048698997e-09,-16.672982886953,21.706612495869003,-2.1730984402337,0.06111111111111099,50400.0,1.0,1100.0,530.0,0.2,17.0
110,1987200.0,23.0,-1.7514270415091e-05,2.3324093405185e-05,-5.8098229900946e-06,-1.6598720543834998e-08,1.9224554190967e-08,-2.6258336471322e-09,-16.671913183918,21.832707185732,-2.1664193436061,0.06388888888888901,50400.0,1.0,1100.0,530.0,0.2,17.0
114,2073600.0,24.0,-1.813757196301e-05,2.4157828395019e-05,-6.020256432008401e-06,-1.7420053526188e-08,2.0199366797338e-08,-2.7793132711494e-09,-16.670886577192,21.958851097295998,-2.159370807361,0.066666666666667,50400.0,1.0,1100.0,530.0,0.2,17.0
118,2160000.0,25.0,-1.8753462315709e-05,2.4981953697069e-05,-6.2284913813609e-06,-1.8248946310937e-08,2.1184591220492e-08,-2.9356449095547e-09,-16.669773610499,22.078173007034,-2.1544321997009996,0.069444444444444,50400.0,1.0,1100.0,530.0,0.2,17.0
122,2246400.0,26.0,-1.9362208352991e-05,2.5796816103967003e-05,-6.4346077509766e-06,-1.9085370916026e-08,2.2180194995499e-08,-3.0948240794731e-09,-16.668790329401,22.198116141371003,-2.1486236568334998,0.072222222222222,50400.0,1.0,1100.0,530.0,0.2,17.0
126,2332800.0,27.0,-1.9964054704833e-05,2.6602735199667002e-05,-6.638680494834e-06,-1.9929291458254e-08,2.3186138321248e-08,-3.2568468629938e-09,-16.667816873996998,22.317054775232002,-2.1428009217826998,0.075,50400.0,1.0,1100.0,530.0,0.2,17.0
130,2419200.0,28.0,-2.0559244596432e-05,2.7400029794023e-05,-6.8407851975912e-06,-2.0780687817416e-08,2.4202402100595e-08,-3.421714283179e-09,-16.666791446523,22.437963977954002,-2.1362290812163,0.077777777777778,50400.0,1.0,1100.0,530.0,0.2,17.0
134,2505600.0,29.0,-2.114799624679e-05,2.8188986191484997e-05,-7.0409899446952e-06,-2.1639527590526997e-08,2.5228952167803e-08,-3.5894245772753e-09,-16.665744351612002,22.558295818053,-2.1295736839687,0.08055555555555599,50400.0,1.0,1100.0,530.0,0.2,17.0
138,2592000.0,30.0,-2.1730506742657998e-05,2.8969862218179998e-05,-7.2393554755228e-06,-2.250576607472e-08,2.626573785161e-08,-3.7599717768901e-09,-16.664704649742,22.674836431427003,-2.1235575087856997,0.083333333333333,50400.0,1.0,1100.0,530.0,0.2,17.0
142,2678400.0,31.0,-2.2306970447994e-05,2.9742911300248998e-05,-7.435940852255e-06,-2.3379376273686e-08,2.731273039124e-08,-3.9333541175541994e-09,-16.663638059241,22.791386050735998,-2.1172864191293,0.08611111111111099,50400.0,1.0,1100.0,530.0,0.2,17.0
146,2764800.0,32.0,-2.2877571227147e-05,3.0508373088251e-05,-7.6308018611039e-06,-2.426033179856e-08,2.8369901736439002e-08,-4.1095699378784005e-09,-16.662537510551,22.908032398451,-2.1106886935557,0.08888888888888902,50400.0,1.0,1100.0,530.0,0.2,17.0
150,2851200.0,33.0,-2.3442482540753e-05,3.1266473942753006e-05,-7.8239914020008e-06,-2.5148604914922e-08,2.9437222421269e-08,-4.288617506347101e-09,-16.661401572328,23.02414338849,-2.1039917210366004,0.091666666666667,50400.0,1.0,1100.0,530.0,0.2,17.0
154,2937600.0,34.0,-2.4001856519201003e-05,3.2017409676938e-05,-8.015553157736901e-06,-2.6044154009482002e-08,3.051464336396e-08,-4.4704893544778e-09,-16.660249723097,23.136887376776,-2.0977763065766,0.094444444444444,50400.0,1.0,1100.0,530.0,0.2,17.0
158,3024000.0,35.0,-2.4555847979157e-05,3.2761383682388e-05,-8.205535703231e-06,-2.694694845424e-08,3.1602132456234e-08,-4.6551840019938e-09,-16.659118378089,23.248308634842,-2.0916355489418,0.09722222222222197,50400.0,1.0,1100.0,530.0,0.2,17.0
162,3110400.0,36.0,-2.5104606445772e-05,3.34985909199e-05,-8.3939844741273e-06,-2.7856960904929e-08,3.2699660516440996e-08,-4.8426996115121e-09,-16.658574523442,23.357729756494003,-2.0866855788325,0.1,50400.0,1.0,1100.0,530.0,0.2,17.0
166,3196800.0,37.0,-2.564829093887e-05,3.4229236232689e-05,-8.5809452938184e-06,-2.8774205298583e-08,3.3807248607103995e-08,-5.0330433085212996e-09,-16.657493778943998,23.476070957159,-2.0784580237183,0.10277777777778,50400.0,1.0,1100.0,530.0,0.2,17.0
170,3283200.0,38.0,-2.6187011117249e-05,3.4953466586015994e-05,-8.7664554687675e-06,-2.9698590998881e-08,3.4924790969132994e-08,-5.2261999702521e-09,-16.656553139157,23.578187959050002,-2.0745478041421004,0.10555555555556,50400.0,1.0,1100.0,530.0,0.2,17.0
174,3369600.0,39.0,-2.6720897440198e-05,3.5671446838695003e-05,-8.950549398497e-06,-3.0630118817965e-08,3.6052288788341005e-08,-5.4221699703753e-09,-16.655499039785,23.685890802204,-2.0685829158717,0.10833333333333,50400.0,1.0,1100.0,530.0,0.2,17.0
178,3456000.0,40.0,-2.7250072348826997e-05,3.6383336282045e-05,-9.133263933217699e-06,-3.1568763162765e-08,3.7189714660701004e-08,-5.620951497935699e-09,-16.654481354465002,23.793101586189998,-2.0625924596018,0.11111111111111001,50400.0,1.0,1100.0,530.0,0.2,17.0
182,3542400.0,41.0,-2.7774657533106e-05,3.7089293839536e-05,-9.314636306430698e-06,-3.2514504936751e-08,3.8337050171781005e-08,-5.8225452350299e-09,-16.653481530525,23.900092041727,-2.0565481799963,0.11388888888889,50400.0,1.0,1100.0,530.0,0.2,17.0
186,3628800.0,42.0,-2.829475869616e-05,3.7789455634462e-05,-9.494696938302e-06,-3.3467315870156e-08,3.9494263117358e-08,-6.026947247201899e-09,-16.652502635469002,24.005304561676002,-2.0507951168328,0.11666666666667,50400.0,1.0,1100.0,530.0,0.2,17.0
190,3715200.0,43.0,-2.8810483180615002e-05,3.8483961159981e-05,-9.673477979365401e-06,-3.4427170386707005e-08,4.0661325738572e-08,-6.2341553518648e-09,-16.651567047663,24.109540923277997,-2.0451033308678,0.11944444444444001,50400.0,1.0,1100.0,530.0,0.2,17.0
194,3801600.0,44.0,-2.932193202132e-05,3.9172940731690995e-05,-9.851008710371301e-06,-3.5394043747988e-08,4.1838210834805e-08,-6.4441670868178e-09,-16.650640459629,24.212335740489003,-2.0396402091967,0.12222222222222,50400.0,1.0,1100.0,530.0,0.2,17.0
198,3888000.0,45.0,-2.9829205000258002e-05,3.9856524292570004e-05,-1.0027319292313e-05,-3.6367914138667e-08,4.3024895467295e-08,-6.6569813286274996e-09,-16.649732423046,24.314231545026,-2.0342141161783003,0.125,50400.0,1.0,1100.0,530.0,0.2,17.0
202,3974400.0,46.0,-3.0332398023112e-05,4.0534836571823e-05,-1.0202438548711e-05,-3.7348758836527e-08,4.4221355655167e-08,-6.872596818640099e-09,-16.64883746394,24.414929530258004,-2.0289277177583998,0.12777777777778,50400.0,1.0,1100.0,530.0,0.2,17.0
206,4060800.0,47.0,-3.0831601532365006e-05,4.1207994365764e-05,-1.0376392833399e-05,-3.8336557841549e-08,4.5427569997853e-08,-7.091012156303901e-09,-16.647947265827998,24.515217289228,-2.0236080960976,0.13055555555556,50400.0,1.0,1100.0,530.0,0.2,17.0
210,4147200.0,48.0,-3.132689800488e-05,4.1876103876241e-05,-1.0549205871361e-05,-3.9331280587086e-08,4.6643503314457e-08,-7.312222727371401e-09,-16.647091993454,24.61277848855,-2.0188147727549,0.13333333333333,50400.0,1.0,1100.0,530.0,0.2,17.0
214,4233600.0,49.0,-3.1818376978717e-05,4.2539281230439e-05,-1.0720904251721e-05,-4.0332917292368e-08,4.7869147634241e-08,-7.5362303418734e-09,-16.646225713865,24.711733847917,-2.0135349235817,0.13611111111111,50400.0,1.0,1100.0,530.0,0.2,17.0
218,4320000.0,50.0,-3.2306118174526004e-05,4.3197630453665e-05,-1.0891512279139e-05,-4.1341438276098e-08,4.9104470230008e-08,-7.763031953910001e-09,-16.64538651646,24.807598552793003,-2.0088745862489,0.13888888888889,50400.0,1.0,1100.0,530.0,0.2,17.0
222,4406400.0,51.0,-3.279020296e-05,4.3851255562129e-05,-1.1061052602128999e-05,-4.2356839214353994e-08,5.0349468492968e-08,-7.992629278613899e-09,-16.644537803887,24.906285964604997,-2.0033926005488,0.14166666666667002,50400.0,1.0,1100.0,530.0,0.2,17.0
226,4492800.0,52.0,-3.3270709089756e-05,4.4500258216899e-05,-1.1229549127142e-05,-4.3379098404517e-08,5.160412010923901e-08,-8.2250217047211e-09,-16.643701505442,25.003346843852,-1.9981763721577002,0.14444444444444002,50400.0,1.0,1100.0,530.0,0.2,17.0
230,4579200.0,53.0,-3.3747703242817e-05,4.5144724728109996e-05,-1.1397021485292999e-05,-4.4408191696222994e-08,5.2868399431448e-08,-8.4602077352246e-09,-16.643507007302002,25.098344355618,-1.9947130244305,0.14722222222222,50400.0,1.0,1100.0,530.0,0.2,17.0
234,4665600.0,54.0,-3.4221261445202005e-05,4.5784753273246e-05,-1.1563491828045e-05,-4.5444101703504997e-08,5.414228737206299e-08,-8.698185668557701e-09,-16.64266747451,25.192916775417,-1.9897816963644999,0.15,50400.0,1.0,1100.0,530.0,0.2,17.0
238,4752000.0,55.0,-3.4691451686005e-05,4.6420431069328005e-05,-1.1728979383323e-05,-4.648681578681099e-08,5.5425770991854e-08,-8.938955205043299e-09,-16.641801046645,25.288112263450998,-1.9846321692353999,0.15277777777777998,50400.0,1.0,1100.0,530.0,0.2,17.0
242,4838400.0,56.0,-3.5156978620305e-05,4.7049961749154e-05,-1.1892983128849e-05,-4.7532604371229e-08,5.6713826878400005e-08,-9.1812225071712e-09,-16.640979152785,25.380835846243,-1.9798403440631003,0.15555555555556,50400.0,1.0,1100.0,530.0,0.2,17.0
246,4924800.0,57.0,-3.5619300317460996e-05,4.7675351107411e-05,-1.205605078995e-05,-4.858515515207599e-08,5.8011423193805005e-08,-9.426268041729001e-09,-16.640153770443,25.473376551789,-1.975020138845,0.15833333333333,50400.0,1.0,1100.0,530.0,0.2,17.0
250,5011200.0,58.0,-3.607845911754e-05,4.8296656164536e-05,-1.2218197046996001e-05,-4.9644396904359004e-08,5.9318475166406e-08,-9.6740782620468e-09,-16.639331208703002,25.565744582515997,-1.9701127911493,0.16111111111110998,50400.0,1.0,1100.0,530.0,0.2,17.0
254,5097600.0,59.0,-3.6534534914996005e-05,4.8913978141908e-05,-1.2379443226912e-05,-5.0710357844745e-08,6.063501953711999e-08,-9.924661692375301e-09,-16.638382952893,25.658150848062,-1.9649778844268,0.16388888888889003,50400.0,1.0,1100.0,530.0,0.2,17.0
258,5184000.0,60.0,-3.6987571934670004e-05,4.952737469143e-05,-1.2539802756761e-05,-5.178299978508599e-08,6.1961011459927e-08,-1.0178011674841e-08,-16.637523057399,25.750341522758003,-1.9597762185685,0.16666666666667002,50400.0,1.0,1100.0,530.0,0.2,17.0
262,5270400.0,61.0,-3.7438914010068e-05,5.0138705323501e-05,-1.2699791313432001e-05,-5.2866059238183e-08,6.330152401364599e-08,-1.0435464775463e-08,-16.636737434582,25.839104967466003,-1.9554231525187,0.16944444444444,50400.0,1.0,1100.0,530.0,0.2,17.0
266,5356800.0,62.0,-3.7887307743495e-05,5.074622787858e-05,-1.2858920135085e-05,-5.3955793108607994e-08,6.4651493898549e-08,-1.0695700789941e-08,-16.635980164270002,25.926417830039,-1.9513500718814998,0.17222222222222,50400.0,1.0,1100.0,530.0,0.2,17.0
270,5443200.0,63.0,-3.833281616472e-05,5.1350024283563e-05,-1.3017208118843e-05,-5.5052209487245e-08,6.6010936331214e-08,-1.0958726843969e-08,-16.635202542404002,26.017492807982997,-1.9462843385273,0.175,50400.0,1.0,1100.0,530.0,0.2,17.0
274,5529600.0,64.0,-3.8775467418691996e-05,5.1950129344189e-05,-1.3174661925497e-05,-5.6155239934739995e-08,6.7379764441186e-08,-1.1224524506446e-08,-16.634494470064002,26.09811548865,-1.9436336300907,0.17777777777778,50400.0,1.0,1100.0,530.0,0.2,17.0
278,5616000.0,65.0,-3.9215330460157004e-05,5.2546636058072e-05,-1.3331305597915e-05,-5.7264883480054006e-08,6.8757986817282e-08,-1.1493103337228998e-08,-16.633759908917,26.178736072245,-1.9408647352638,0.18055555555556,50400.0,1.0,1100.0,530.0,0.2,17.0
282,5702400.0,66.0,-3.9652423760313e-05,5.3139561973669e-05,-1.3487138213355999e-05,-5.8381090509517e-08,7.0145533617481e-08,-1.1764443107963998e-08,-16.633115130844,26.254554128034002,-1.9388585317006002,0.18333333333332996,50400.0,1.0,1100.0,530.0,0.2,17.0
286,5788800.0,67.0,-4.0086845044619e-05,5.3729036959611e-05,-1.3642191914992e-05,-5.9503968277301e-08,7.1542553467527e-08,-1.2038585190225001e-08,-16.632261970416998,26.352611949558,-1.9319752343693,0.18611111111111,50400.0,1.0,1100.0,530.0,0.2,17.0
290,5875200.0,68.0,-4.0518624336985e-05,5.4315101481286e-05,-1.3796477144301002e-05,-6.0633432762455e-08,7.2948943208816e-08,-1.231551044636e-08,-16.631587377578,26.435358401813,-1.9284395785391,0.18888888888889,50400.0,1.0,1100.0,530.0,0.2,17.0
294,5961600.0,69.0,-4.0947777037104e-05,5.4897769503517e-05,-1.3949992466413e-05,-6.1769436586973e-08,7.4364636443168e-08,-1.2595199856195e-08,-16.630906363218998,26.513462811454,-1.9256760998459,0.19166666666667004,50400.0,1.0,1100.0,530.0,0.2,17.0
298,6048000.0,70.0,-4.1374400853636e-05,5.547716987251999e-05,-1.4102769018884e-05,-6.291210419646e-08,7.5789802810184e-08,-1.2877698613724e-08,-16.630052575576,26.616497055981,-1.9172841086517,0.19444444444444,50400.0,1.0,1100.0,530.0,0.2,17.0
302,6134400.0,71.0,-4.1797184572604e-05,5.6051514583959e-05,-1.4254330011354001e-05,-6.4057163407181e-08,7.721870488802099e-08,-1.3161541480841e-08,-16.629253941896,26.715729916550004,-1.9094122623281002,0.19722222222222,50400.0,1.0,1100.0,530.0,0.2,17.0
306,6220800.0,72.0,-4.2217788277286e-05,5.662303368048101e-05,-1.4405245403194e-05,-6.5209615935535e-08,7.8658018305546e-08,-1.3448402370012e-08,-16.628452545859002,26.813071372821003,-1.9018826357616,0.2,50400.0,1.0,1100.0,530.0,0.2,17.0
310,6307200.0,73.0,-4.2637003308171e-05,5.719284980060601e-05,-1.4555846492435e-05,-6.637202380759701e-08,8.0111276827322e-08,-1.3739253019725001e-08,-16.62769248346,26.901750636306,-1.8963055971848,0.20277777777778,50400.0,1.0,1100.0,530.0,0.2,17.0
314,6393600.0,74.0,-4.3053813166881e-05,5.7759559998495e-05,-1.4705746831614001e-05,-6.754090011514e-08,8.1573771944767e-08,-1.4032871829626e-08,-16.627069661529,26.974159178014997,-1.8943674557623003,0.20555555555556,50400.0,1.0,1100.0,530.0,0.2,17.0
318,6480000.0,75.0,-4.3468276838019e-05,5.832323832711e-05,-1.4854961489091e-05,-6.871633525974e-08,8.3045622493214e-08,-1.4329287233473999e-08,-16.626711634908,27.066537798105003,-1.8888711850442998,0.20833333333332996,50400.0,1.0,1100.0,530.0,0.2,17.0
322,6566400.0,76.0,-4.3880420889911e-05,5.8883919962731006e-05,-1.5003499072820002e-05,-6.989826066797901e-08,8.4526743642827e-08,-1.4628482974847999e-08,-16.625941715962,27.146947504525,-1.8853069502282,0.21111111111111,50400.0,1.0,1100.0,530.0,0.2,17.0
326,6652800.0,77.0,-4.4290284200322995e-05,5.9441653694619995e-05,-1.5151369494297e-05,-7.108668318750299e-08,8.6017145700228e-08,-1.4930462512724998e-08,-16.625216091288,27.23100753941,-1.8806043998253,0.21388888888889,50400.0,1.0,1100.0,530.0,0.2,17.0
330,6739200.0,78.0,-4.4697906187406e-05,5.9996493396292e-05,-1.5298587208887e-05,-7.228156927309901e-08,8.751679361280099e-08,-1.5235224339701997e-08,-16.624546642836002,27.308802963899,-1.8774121776055,0.21666666666667003,50400.0,1.0,1100.0,530.0,0.2,17.0
334,6825600.0,79.0,-4.5103319791732e-05,6.054847800308199e-05,-1.544515821135e-05,-7.3482934325853e-08,8.9025704748571e-08,-1.5542770422718997e-08,-16.623833722062,27.392600399510002,-1.872612041149,0.21944444444444,50400.0,1.0,1100.0,530.0,0.2,17.0
338,6912000.0,80.0,-4.5506558579871994e-05,6.1097654782447e-05,-1.5591096202575e-05,-7.4690732471628e-08,9.0543830143435e-08,-1.5853097671807e-08,-16.62320675274,27.467949643979,-1.8698926482817,0.22222222222222002,50400.0,1.0,1100.0,530.0,0.2,17.0
342,6998400.0,81.0,-4.5907655836058e-05,6.164406260085799e-05,-1.5736406764798998e-05,-7.590498783633599e-08,9.207119724552e-08,-1.6166209409183003e-08,-16.622488998093,27.55083107932,-1.8651209012683,0.225,50400.0,1.0,1100.0,530.0,0.2,17.0
346,7084800.0,82.0,-4.6306634161249e-05,6.2187729448906e-05,-1.5881095287657e-05,-7.7125675653249e-08,9.360777503938901e-08,-1.648209938614e-08,-16.621811689103,27.631660532649,-1.8608004402921998,0.22777777777778,50400.0,1.0,1100.0,530.0,0.2,17.0
350,7171200.0,83.0,-4.6703529791441996e-05,6.2728704927117e-05,-1.6025175135675e-05,-7.835276239827699e-08,9.5153528408569e-08,-1.6800766010292e-08,-16.621175449008998,27.706347040459995,-1.8579253930422,0.23055555555555998,50400.0,1.0,1100.0,530.0,0.2,17.0
354,7257600.0,84.0,-4.7097699166838e-05,6.326609033178e-05,-1.6168391164942002e-05,-7.9583984312738e-08,9.6705354974099e-08,-1.7121370661361e-08,-16.620470115497,27.784575847097997,-1.8538232986101002,0.23333333333332998,50400.0,1.0,1100.0,530.0,0.2,17.0
358,7344000.0,85.0,-4.7489844310413e-05,6.3800851974825e-05,-1.6311007664411e-05,-8.082134043302701e-08,9.8265995291087e-08,-1.7444654858061e-08,-16.619745988929,27.863277633695002,-1.8495656868405,0.23611111111111,50400.0,1.0,1100.0,530.0,0.2,17.0
362,7430400.0,86.0,-4.7880712274788e-05,6.433403836983e-05,-1.6453326095042e-05,-8.2067626832749e-08,9.9839298253762e-08,-1.7771671421013e-08,-16.619066680997,27.941673312904,-1.8455049770977,0.23888888888889,50400.0,1.0,1100.0,530.0,0.2,17.0
366,7516800.0,87.0,-4.8269625717395e-05,6.4864697437424e-05,-1.659507172003e-05,-8.3320315855877e-08,1.0142179311435e-07,-1.8101477258473e-08,-16.618367435971,28.022941974120997,-1.8406816038407998,0.24166666666667003,50400.0,1.0,1100.0,530.0,0.2,17.0
370,7603200.0,88.0,-4.8656599219634005e-05,6.5392847322401e-05,-1.6736248102767003e-05,-8.4579358487781e-08,1.0301341744244e-07,-1.8434058954663e-08,-16.617727111155,28.097205294669,-1.8375055639853,0.24444444444444,50400.0,1.0,1100.0,530.0,0.2,17.0
374,7689600.0,89.0,-4.9041679447763e-05,6.5918549808925e-05,-1.6876870361162e-05,-8.584478924589799e-08,1.0461422349914e-07,-1.8769434253241e-08,-16.617034530505,28.177633461090004,-1.8327673827789,0.24722222222222,50400.0,1.0,1100.0,530.0,0.2,17.0
378,7776000.0,90.0,-4.9424875131128005e-05,6.644181468248e-05,-1.7016939551352e-05,-8.711655006218701e-08,1.0622413516225e-07,-1.9107585100065e-08,-16.616407113552,28.249830448529,-1.8298370504765,0.25,50400.0,1.0,1100.0,530.0,0.2,17.0
382,7862400.0,91.0,-4.9806227656887e-05,6.6962697463874e-05,-1.7156469806987e-05,-8.8394662098232e-08,1.0784318789998e-07,-1.9448525801750002e-08,-16.615727476270003,28.325795996029,-1.8261114621758,0.25277777777778,50400.0,1.0,1100.0,530.0,0.2,17.0
386,7948800.0,92.0,-5.0185763503431e-05,6.748123151596501e-05,-1.7295468012534e-05,-8.9679124579938e-08,1.0947138238739998e-07,-1.9792257807462002e-08,-16.615067880610003,28.403250936707,-1.8218858600202,0.25555555555556,50400.0,1.0,1100.0,530.0,0.2,17.0
390,8035200.0,93.0,-5.0563495109557e-05,6.799743108054201e-05,-1.7433935970985e-05,-9.096990772858801e-08,1.1110867926554e-07,-2.0138771536955e-08,-16.614403300676,28.477871859264997,-1.8182477620378998,0.25833333333333,50400.0,1.0,1100.0,530.0,0.2,17.0
394,8121600.0,94.0,-5.0939463264322995e-05,6.851135092563001e-05,-1.7571887661308e-05,-9.226703003186699e-08,1.1275511047483e-07,-2.0488080442964e-08,-16.613759459934002,28.555379722997,-1.8138972859061,0.26111111111111,50400.0,1.0,1100.0,530.0,0.2,17.0
398,8208000.0,95.0,-5.1313679575427e-05,6.9023003892874e-05,-1.7709324317446e-05,-9.3570462564059e-08,1.144106369695e-07,-2.0840174405436998e-08,-16.613125141217,28.630159124123,-1.8101270356648,0.26388888888889,50400.0,1.0,1100.0,530.0,0.2,17.0
402,8294400.0,96.0,-5.1686172281673e-05,6.9532427718737e-05,-1.7846255437064002e-05,-9.4880191192586e-08,1.1607524605441e-07,-2.1195054861827003e-08,-16.612527155524003,28.702425817902004,-1.8068701965366,0.26666666666667005,50400.0,1.0,1100.0,530.0,0.2,17.0
406,8380800.0,97.0,-5.2056968399690994e-05,7.0039657031941e-05,-1.798268863225e-05,-9.619622671506599e-08,1.1774895486196001e-07,-2.1552728146897e-08,-16.611893615405,28.777913618895003,-1.8028152152131,0.26944444444444,50400.0,1.0,1100.0,530.0,0.2,17.0
410,8467200.0,98.0,-5.2425549010308e-05,7.0543962950765e-05,-1.8118413940457e-05,-9.751646882573e-08,1.1942886785584e-07,-2.1912399030108e-08,-16.611296162364,28.850009653314,-1.799473729491,0.27222222222222,50400.0,1.0,1100.0,530.0,0.2,17.0
414,8553600.0,99.0,-5.2792461511471e-05,7.1046108471817e-05,-1.8253646960346e-05,-9.884289951229802e-08,1.2111772118074998e-07,-2.2274821668453e-08,-16.6106756204,28.923703930115,-1.7956273555528999,0.275,50400.0,1.0,1100.0,530.0,0.2,17.0
418,8640000.0,100.0,-5.3158297337609004e-05,7.1546919680851e-05,-1.8388622343242e-05,-1.0017776052146e-07,1.2281861710567998e-07,-2.2640856584220003e-08,-16.610066852343,28.997483692133002,-1.7917916060714,0.27777777777778,50400.0,1.0,1100.0,530.0,0.2,17.0
422,8726400.0,101.0,-5.3522520638717e-05,7.2045643870857e-05,-1.852312323214e-05,-1.0151888542251e-07,1.2452856705675002e-07,-2.3009681634247997e-08,-16.609434122789,29.069983424727003,-1.7881944244374999,0.28055555555556,50400.0,1.0,1100.0,530.0,0.2,17.0
426,8812800.0,102.0,-5.3885145964131e-05,7.254229859695899e-05,-1.8657152632828e-05,-1.0286625811665e-07,1.2624755026935999e-07,-2.3381292152711e-08,-16.608826110109,29.141432888548998,-1.7847887405206,0.28333333333333,50400.0,1.0,1100.0,530.0,0.2,17.0
430,8899200.0,103.0,-5.4246203116610996e-05,7.3036923584102e-05,-1.8790720467492003e-05,-1.042198864608e-07,1.2797558298187e-07,-2.3755696521074e-08,-16.608208417220002,29.214259475924,-1.7809288847796,0.28611111111111,50400.0,1.0,1100.0,530.0,0.2,17.0
434,8985600.0,104.0,-5.460571408313e-05,7.3529547325623e-05,-1.8923833242492e-05,-1.0557977437545e-07,1.2971267377335e-07,-2.4132899397899e-08,-16.607583804115,29.288671327729997,-1.7768030076654,0.28888888888888997,50400.0,1.0,1100.0,530.0,0.2,17.0
438,9072000.0,105.0,-5.4963697536912e-05,7.402019362956099e-05,-1.905649609265e-05,-1.0694590488312e-07,1.3145880289878e-07,-2.4512898015657996e-08,-16.606945415412,29.360985521765,-1.773010938236,0.29166666666667,50400.0,1.0,1100.0,530.0,0.2,17.0
442,9158400.0,106.0,-5.5320166110775e-05,7.4508877686149e-05,-1.9188711575373003e-05,-1.0831826327037001e-07,1.3321395144556998e-07,-2.48956881752e-08,-16.606337912556,29.432493330331003,-1.7693749504848,0.29444444444444,50400.0,1.0,1100.0,530.0,0.2,17.0
446,9244800.0,107.0,-5.5675145951558996e-05,7.4995634558764e-05,-1.9320488607205e-05,-1.0969684208122e-07,1.3497811587351e-07,-2.5281273792287002e-08,-16.605788078008,29.502468326876002,-1.7660629070053997,0.29722222222221995,50400.0,1.0,1100.0,530.0,0.2,17.0
450,9331200.0,108.0,-5.6028655430785e-05,7.548048757361801e-05,-1.9451832142832997e-05,-1.1108163927818999e-07,1.367512965975e-07,-2.566965731931e-08,-16.605210022419,29.573755837856,-1.7628490165203,0.3,50400.0,1.0,1100.0,530.0,0.2,17.0
454,9417600.0,109.0,-5.6380153558053004e-05,7.5962736320668e-05,-1.9582582762614e-05,-1.1247080290209001e-07,1.3853093656599e-07,-2.6060133663895e-08,-16.60455410554,29.642561202624996,-1.7596432481296,0.30277777777778003,50400.0,1.0,1100.0,530.0,0.2,17.0
458,9504000.0,110.0,-5.6730267323619994e-05,7.6443171326739e-05,-1.9712904003119e-05,-1.1386612010975001e-07,1.4031950582981e-07,-2.6453385720057996e-08,-16.603986815043,29.710983671907,-1.7564869780246002,0.30555555555555997,50400.0,1.0,1100.0,530.0,0.2,17.0
462,9590400.0,111.0,-5.7078975673287e-05,7.6921777270113e-05,-1.9842801596826e-05,-1.1526752100171001e-07,1.4211691802629997e-07,-2.6849397024588002e-08,-16.603425719476,29.779971392529998,-1.7531703882591998,0.30833333333333,50400.0,1.0,1100.0,530.0,0.2,17.0
466,9676800.0,112.0,-5.742631132117e-05,7.7398598087314e-05,-1.9972286766144e-05,-1.1667511228678e-07,1.4392331662556e-07,-2.7248204338781e-08,-16.602837483819002,29.851802285599998,-1.7490594130153998,0.31111111111111,50400.0,1.0,1100.0,530.0,0.2,17.0
470,9763200.0,113.0,-5.7772283199692004e-05,7.7873649600898e-05,-2.0101366401206e-05,-1.1808892736319999e-07,1.4573874793703e-07,-2.7649820573831005e-08,-16.602264130467997,29.919516946111003,-1.7459718342816999,0.31388888888889,50400.0,1.0,1100.0,530.0,0.2,17.0
474,9849600.0,114.0,-5.8116922066368006e-05,7.834696806454599e-05,-2.0230045998178e-05,-1.1950897810311e-07,1.4756322962586e-07,-2.8054251522753e-08,-16.601673337591,29.989138257901,-1.7423568022004,0.31666666666667,50400.0,1.0,1100.0,530.0,0.2,17.0
478,9936000.0,115.0,-5.846022447551999e-05,7.8818552964337e-05,-2.0358328488817003e-05,-1.2093522222676e-07,1.4939670981384e-07,-2.8461487587074e-08,-16.601086759403998,30.057668053685003,-1.7388680741370002,0.31944444444444003,50400.0,1.0,1100.0,530.0,0.2,17.0
482,10022400.0,116.0,-5.8802183814414004e-05,7.9288395548814e-05,-2.04862117344e-05,-1.2236751847851e-07,1.5123900551227e-07,-2.8871487033757e-08,-16.600508475429002,30.129463342715997,-1.7346051252949,0.32222222222221997,50400.0,1.0,1100.0,530.0,0.2,17.0
486,10108800.0,117.0,-5.9142873722873e-05,7.975658595285e-05,-2.0613712229978e-05,-1.2380615726689998e-07,1.5309049429302e-07,-2.9284337026117997e-08,-16.599948060299,30.203275383505996,-1.7297385452541998,0.325,50400.0,1.0,1100.0,530.0,0.2,17.0
490,10195200.0,118.0,-5.948233271516e-05,8.022317206039101e-05,-2.074083934523e-05,-1.2525121763036e-07,1.5495129122954e-07,-2.9700073599187005e-08,-16.599352118311,30.272774499519,-1.7259258864023999,0.32777777777778005,50400.0,1.0,1100.0,530.0,0.2,17.0
494,10281600.0,119.0,-5.9820802654070995e-05,8.0688535389714e-05,-2.0867732735643e-05,-1.2670394981841e-07,1.5682318328848e-07,-3.0119233470076e-08,-16.598777861236,30.34060768703,-1.7224965416687,0.33055555555556,50400.0,1.0,1100.0,530.0,0.2,17.0
498,10368000.0,120.0,-6.0158008904446e-05,8.1152260755053e-05,-2.0994251850607002e-05,-1.2816286148998998e-07,1.5870407275062002e-07,-3.0541211260631e-08,-16.598223442014,30.413474442903,-1.7176676585314,0.33333333333333,50400.0,1.0,1100.0,530.0,0.2,17.0
502,10454400.0,121.0,-6.049393996546801e-05,8.1614328486277e-05,-2.1120388520809e-05,-1.2962787883084e-07,1.6059385450446e-07,-3.0965975673625e-08,-16.597678360528,30.478082847668,-1.7147533980270002,0.33611111111111003,50400.0,1.0,1100.0,530.0,0.2,17.0
506,10540800.0,122.0,-6.0828631570753006e-05,8.2074788826951e-05,-2.1246157256198002e-05,-1.3109903861978e-07,1.6249258929429997e-07,-3.1393550674519995e-08,-16.597142912007,30.546359192277002,-1.7109941919755,0.33888888888889,50400.0,1.0,1100.0,530.0,0.2,17.0
510,10627200.0,123.0,-6.1162092505173e-05,8.2533652799345e-05,-2.1371560294172e-05,-1.3257631475305e-07,1.6440024404759e-07,-3.1823929294537e-08,-16.59665149859,30.611171070993,-1.7079023395913002,0.34166666666667,50400.0,1.0,1100.0,530.0,0.2,17.0
514,10713600.0,124.0,-6.1494334572161e-05,8.299093591153e-05,-2.1496601339369e-05,-1.3405968716315e-07,1.6631679544895e-07,-3.2257108285802995e-08,-16.596195316538,30.673213103309003,-1.7055643039782,0.34444444444444,50400.0,1.0,1100.0,530.0,0.2,17.0
518,10800000.0,125.0,-6.1825382839024e-05,8.3446671444893e-05,-2.1621288605869e-05,-1.3554920280284e-07,1.6824231195422e-07,-3.2693109151382e-08,-16.595535548415,30.743457017477997,-1.7017856832557,0.34722222222222,50400.0,1.0,1100.0,530.0,0.2,17.0
522,10886400.0,126.0,-6.2155241499197e-05,8.390086313363499e-05,-2.1745621634438e-05,-1.3704480626108e-07,1.7017671943473001e-07,-3.3131913173656e-08,-16.595022421736,30.805377473603002,-1.6993517261936,0.35,50400.0,1.0,1100.0,530.0,0.2,17.0
526,10972800.0,127.0,-6.2483937008887e-05,8.435354618185e-05,-2.1869609172962e-05,-1.3854656813661e-07,1.721201160881e-07,-3.3573547951486004e-08,-16.594383169073,30.879092796296,-1.694299550675,0.35277777777778,50400.0,1.0,1100.0,530.0,0.2,17.0
530,11059200.0,128.0,-6.2811471279356e-05,8.480472211514399e-05,-2.1993250835788e-05,-1.4005442460417e-07,1.7407241753655e-07,-3.4017992932379e-08,-16.593799860188998,30.943474816012,-1.6912429125563002,0.35555555555556,50400.0,1.0,1100.0,530.0,0.2,17.0
534,11145600.0,129.0,-6.3137859472615e-05,8.525441026390601e-05,-2.2116550791291e-05,-1.4156838826055e-07,1.7603364338616e-07,-3.4465255125606e-08,-16.593282367421,31.010297108689,-1.6876187905553999,0.35833333333333,50400.0,1.0,1100.0,530.0,0.2,17.0
538,11232000.0,130.0,-6.3463109908269e-05,8.5702621702732e-05,-2.2239511794463e-05,-1.4308841687799e-07,1.7800374039315e-07,-3.4915323515166e-08,-16.592732185359,31.070606117216002,-1.6853468264023,0.36111111111111,50400.0,1.0,1100.0,530.0,0.2,17.0
542,11318400.0,131.0,-6.3787244407749e-05,8.614938369260501e-05,-2.2362139284856e-05,-1.4461455627207e-07,1.7998277243736e-07,-3.5368216165287e-08,-16.592279860308,31.138855181287,-1.681422456024,0.36388888888889,50400.0,1.0,1100.0,530.0,0.2,17.0
546,11404800.0,132.0,-6.4110273956137e-05,8.6594710865273e-05,-2.2484436909136e-05,-1.4614679695338e-07,1.8197072907247e-07,-3.5823932119095e-08,-16.591732845897,31.205986705584998,-1.6775509408062,0.36666666666666997,50400.0,1.0,1100.0,530.0,0.2,17.0
550,11491200.0,133.0,-6.4432203984223e-05,8.703861202753e-05,-2.2606408043306e-05,-1.4768507787983001e-07,1.8396753373643e-07,-3.6282455856602e-08,-16.591310930501002,31.262997193987,-1.6757187845533001,0.36944444444444,50400.0,1.0,1100.0,530.0,0.2,17.0
554,11577600.0,134.0,-6.4753051286835e-05,8.748110578039e-05,-2.2728054493555e-05,-1.4922947101717998e-07,1.8597327994851e-07,-3.6743808931335e-08,-16.590713321778,31.333659256047,-1.6711227210361999,0.37222222222222,50400.0,1.0,1100.0,530.0,0.2,17.0
558,11664000.0,135.0,-6.5072839464113e-05,8.7922226552767e-05,-2.2849387088654e-05,-1.5077995191762e-07,1.8798794814737e-07,-3.7207996229758e-08,-16.590232149721,31.397969879812997,-1.6678090295385,0.375,50400.0,1.0,1100.0,530.0,0.2,17.0
562,11750400.0,136.0,-6.539155501746501e-05,8.8361952641393e-05,-2.2970397623926998e-05,-1.5233646752334002e-07,1.9001145973369e-07,-3.7674992210355e-08,-16.589709575220002,31.457802701448003,-1.6659030081095,0.37777777777778,50400.0,1.0,1100.0,530.0,0.2,17.0
566,11836800.0,137.0,-6.5709217124197e-05,8.8800308068746e-05,-2.3091090944549e-05,-1.5389905229511e-07,1.9204386168106e-07,-3.8144809385951e-08,-16.589149097108,31.523672667408,-1.6620809233892,0.38055555555556,50400.0,1.0,1100.0,530.0,0.2,17.0
570,11923200.0,138.0,-6.6025849399787e-05,8.9237327473384e-05,-2.3211478073598e-05,-1.5546769428192002e-07,1.9408514985907e-07,-3.8617455577142995e-08,-16.588599346529,31.584964441218,-1.6590071837643998,0.38333333333333003,50400.0,1.0,1100.0,530.0,0.2,17.0
574,12009600.0,139.0,-6.634147115912099e-05,8.9673036121184e-05,-2.3331564962063e-05,-1.5704243384161e-07,1.9613538377555e-07,-3.9092949933931e-08,-16.588087189116003,31.652139613806,-1.6550291804375,0.38611111111111,50400.0,1.0,1100.0,530.0,0.2,17.0
578,12096000.0,140.0,-6.665607517608101e-05,9.010742145665301e-05,-2.3451346280572e-05,-1.5862322600448e-07,1.9819449665594002e-07,-3.9571270651463996e-08,-16.587561476185,31.715536259805003,-1.6517344642336003,0.38888888888889,50400.0,1.0,1100.0,530.0,0.2,17.0
582,12182400.0,141.0,-6.6969669660673e-05,9.054049410678199e-05,-2.357082444611e-05,-1.6021005395768e-07,2.0026246812051e-07,-4.0052414162831e-08,-16.587057085952,31.776858623263003,-1.6488545568362,0.39166666666667,50400.0,1.0,1100.0,530.0,0.2,17.0
586,12268800.0,142.0,-6.7282265631406e-05,9.097226760636e-05,-2.3690001974954002e-05,-1.6180292406987e-07,2.0233930930739e-07,-4.0536385237518e-08,-16.58646953975,31.839934769659,-1.6457912331773001,0.39444444444444,50400.0,1.0,1100.0,530.0,0.2,17.0
590,12355200.0,143.0,-6.7593881141829e-05,9.1402766273671e-05,-2.3808885131841e-05,-1.634018502606e-07,2.0442504379505e-07,-4.1023193534451004e-08,-16.585867532551998,31.904493873942,-1.6421297773946002,0.39722222222222,50400.0,1.0,1100.0,530.0,0.2,17.0
594,12441600.0,144.0,-6.7904317137451e-05,9.183166549403199e-05,-2.3927348356581e-05,-1.6500517599720002e-07,2.0651734008475e-07,-4.1512164087547003e-08,-16.585398708779,31.96126861322,-1.6404008145554,0.4,50400.0,1.0,1100.0,530.0,0.2,17.0
598,12528000.0,145.0,-6.821386078851e-05,9.2259406474473e-05,-2.4045545685963e-05,-1.6661498352474e-07,2.0861910360492001e-07,-4.2004120080179e-08,-16.584817553785,32.027213637827,-1.6362697617752,0.40277777777778,50400.0,1.0,1100.0,530.0,0.2,17.0
602,12614400.0,146.0,-6.8522375567288e-05,9.2685827332362e-05,-2.4163451765073998e-05,-1.6823074294026e-07,2.1072960834854e-07,-4.2498865408278e-08,-16.584395058106,32.083081576024,-1.6346032507654,0.40555555555556,50400.0,1.0,1100.0,530.0,0.2,17.0
606,12700800.0,147.0,-6.882999154431e-05,9.3111090584304e-05,-2.4281099039994e-05,-1.6985302884393e-07,2.1284963674775e-07,-4.2996607903825006e-08,-16.58376880951,32.147242247237,-1.6308164079591998,0.40833333333333,50400.0,1.0,1100.0,530.0,0.2,17.0
610,12787200.0,148.0,-6.913664470951999e-05,9.3535109857874e-05,-2.4398465148354e-05,-1.7148138677460999e-07,2.1497857798329e-07,-4.3497191208684e-08,-16.583297711503,32.206812310153,-1.6281487376803,0.41111111111111,50400.0,1.0,1100.0,530.0,0.2,17.0
614,12873600.0,149.0,-6.944238521583101e-05,9.395794703671501e-05,-2.4515561820883e-05,-1.7311599667028e-07,2.1711667981205e-07,-4.4000683141774005e-08,-16.582804591220004,32.265769526639,-1.6255765070683,0.41388888888888997,50400.0,1.0,1100.0,530.0,0.2,17.0
618,12960000.0,150.0,-6.9747245489099e-05,9.437963387960401e-05,-2.4632388390505e-05,-1.747567769643e-07,2.1926384253514e-07,-4.4507065570836e-08,-16.582458377599,32.328527935091,-1.6220633229619,0.41666666666667,50400.0,1.0,1100.0,530.0,0.2,17.0
622,13046400.0,151.0,-7.005120462027199e-05,9.4800134811395e-05,-2.4748930191123e-05,-1.7640349014066e-07,2.2141974429569002e-07,-4.5016254155038e-08,-16.581893813753,32.391609615816,-1.6183441673932002,0.41944444444444,50400.0,1.0,1100.0,530.0,0.2,17.0
626,13132800.0,152.0,-7.035438644721999e-05,9.5219653679286e-05,-2.4865267232066e-05,-1.7805654376659e-07,2.2358509578596002e-07,-4.552855201937201e-08,-16.581311868556,32.452775345155004,-1.6151813100519,0.42222222222222,50400.0,1.0,1100.0,530.0,0.2,17.0
630,13219200.0,153.0,-7.0656680727484e-05,9.5638017164025e-05,-2.4981336436541e-05,-1.7971560341697e-07,2.257592973049e-07,-4.6043693887922996e-08,-16.580815162368,32.513079107522,-1.6121439143414,0.425,50400.0,1.0,1100.0,530.0,0.2,17.0
634,13305600.0,154.0,-7.095809625878001e-05,9.605523504485401e-05,-2.5097138786074e-05,-1.8138066654559e-07,2.2794234643111e-07,-4.6561679885520997e-08,-16.580347572147,32.573437131637995,-1.6090656535966,0.42777777777778,50400.0,1.0,1100.0,530.0,0.2,17.0
638,13392000.0,155.0,-7.1258635476857e-05,9.6471310389726e-05,-2.5212674912869e-05,-1.8305169950464998e-07,2.3013419886771002e-07,-4.7082499363061e-08,-16.579817112165,32.629933137574,-1.6067522032252,0.43055555555555997,50400.0,1.0,1100.0,530.0,0.2,17.0
642,13478400.0,156.0,-7.1558321665761e-05,9.688627654984599e-05,-2.5327954884085e-05,-1.8472873597095999e-07,2.3233491068649997e-07,-4.7606174715539995e-08,-16.579308932664002,32.689146018418,-1.6038825364343998,0.43333333333333,50400.0,1.0,1100.0,530.0,0.2,17.0
646,13564800.0,157.0,-7.1857153887979e-05,9.7300131106623e-05,-2.5442977218644e-05,-1.8641175138172e-07,2.3454444762322002e-07,-4.8132696241504e-08,-16.578817267049,32.745861601442,-1.6015368747478997,0.43611111111111,50400.0,1.0,1100.0,530.0,0.2,17.0
650,13651200.0,158.0,-7.215514346614e-05,9.7712886670324e-05,-2.5557743204184e-05,-1.8810077646743e-07,2.3676285017209002e-07,-4.8662073704657994e-08,-16.578259765085,32.808879260614,-1.5978218506667,0.43888888888889,50400.0,1.0,1100.0,530.0,0.2,17.0
654,13737600.0,159.0,-7.2452295845274e-05,9.8124550942818e-05,-2.5672255097542998e-05,-1.8979579876236e-07,2.3899010345759e-07,-4.919430469523e-08,-16.577748922770002,32.869709905290996,-1.5944255832381,0.44166666666667,50400.0,1.0,1100.0,530.0,0.2,17.0
658,13824000.0,160.0,-7.2748612633908e-05,9.853512481895501e-05,-2.5786512185047e-05,-1.9149676340718e-07,2.4122613485149004e-07,-4.972937144431e-08,-16.577385435519,32.922915119446,-1.5927435758648998,0.44444444444444003,50400.0,1.0,1100.0,530.0,0.2,17.0
662,13910400.0,161.0,-7.304409648787399e-05,9.8944610974733e-05,-2.5900514486859e-05,-1.9320366609716e-07,2.4347093770492e-07,-5.0267271607758e-08,-16.576867101963,32.976900595289,-1.5907853728942,0.44722222222222,50400.0,1.0,1100.0,530.0,0.2,17.0
666,13996800.0,162.0,-7.3338769011367e-05,9.9353040999314e-05,-2.6014271987947002e-05,-1.9491651955012e-07,2.4572454156304e-07,-5.080802201292099e-08,-16.576494112882,33.02995703375,-1.5891552154656001,0.45,50400.0,1.0,1100.0,530.0,0.2,17.0
670,14083200.0,163.0,-7.3632640934811e-05,9.9760428950575e-05,-2.6127788015765e-05,-1.9663530557328e-07,2.4798692690337e-07,-5.1351621330089e-08,-16.575995522849,33.079959103600004,-1.5881801461453,0.45277777777778,50400.0,1.0,1100.0,530.0,0.2,17.0
674,14169600.0,164.0,-7.3925726434982e-05,0.00010016679338393001,-2.6241066948947e-05,-1.9836006732627e-07,2.5025815564999e-07,-5.189808832372e-08,-16.575474670051,33.135865851752,-1.585836696833,0.45555555555556,50400.0,1.0,1100.0,530.0,0.2,17.0
678,14256000.0,165.0,-7.421803108804399e-05,0.00010057214059314001,-2.63541095051e-05,-2.0009080200553998e-07,2.5253822361806e-07,-5.2447421612512e-08,-16.57498794842,33.192392633456,-1.5833332482353002,0.45833333333333,50400.0,1.0,1100.0,530.0,0.2,17.0
682,14342400.0,166.0,-7.450955451453299e-05,0.00010097646941741,-2.646691490288e-05,-2.0182747174789e-07,2.548270802712e-07,-5.2999608523307e-08,-16.574561712458998,33.245126602279996,-1.5817606772751,0.46111111111111003,50400.0,1.0,1100.0,530.0,0.2,17.0
686,14428800.0,167.0,-7.480031114415699e-05,0.00010137979787044,-2.6579486726283e-05,-2.0357012083183e-07,2.5712478733491e-07,-5.355466650308e-08,-16.574048032601,33.303776834779995,-1.5787194261738,0.46388888888889,50400.0,1.0,1100.0,530.0,0.2,17.0
690,14515200.0,168.0,-7.50902982853e-05,0.00010178212347236,-2.6691825187056e-05,-2.0531870524419e-07,2.5943128690682997e-07,-5.4112581662645e-08,-16.573605501594997,33.356271548232996,-1.5770979156013998,0.46666666666667,50400.0,1.0,1100.0,530.0,0.2,17.0
694,14601600.0,169.0,-7.5379527880921e-05,0.00010218346041935,-2.6803932538433e-05,-2.0707324368840999e-07,2.6174660631880996e-07,-5.4673362630399e-08,-16.573102332447,33.41197869848,-1.5747415980218997,0.46944444444444,50400.0,1.0,1100.0,530.0,0.2,17.0
698,14688000.0,170.0,-7.5668006807739e-05,0.00010258381676929,-2.6915809961554e-05,-2.0883375934438e-07,2.6407077616456e-07,-5.5237016820184007e-08,-16.572649594806002,33.471966321757,-1.5713277002186001,0.47222222222222,50400.0,1.0,1100.0,530.0,0.2,17.0
702,14774400.0,171.0,-7.59557331008e-05,0.00010298318829818,-2.7027455197376998e-05,-2.1060019470583e-07,2.6640371917005e-07,-5.5803524464223006e-08,-16.572180165041,33.524678500307004,-1.5696778831768,0.475,50400.0,1.0,1100.0,530.0,0.2,17.0
706,14860800.0,172.0,-7.6242713749109e-05,0.00010338158645743,-2.7138872708322e-05,-2.1237254330265e-07,2.6874543175359004e-07,-5.637288845093499e-08,-16.571658399061,33.57578365838,-1.5683807142643003,0.47777777777778,50400.0,1.0,1100.0,530.0,0.2,17.0
710,14947200.0,173.0,-7.652895511398901e-05,0.0001037790175773,-2.7250062463312e-05,-2.1415081089368998e-07,2.7109592051642e-07,-5.6945109622728005e-08,-16.571239642639,33.628710759708,-1.566588883863,0.48055555555556,50400.0,1.0,1100.0,530.0,0.2,17.0
714,15033600.0,174.0,-7.6814468880445e-05,0.00010417549874565,-2.7361029865206e-05,-2.1593500053710003e-07,2.7345519642905004e-07,-5.7520195891955996e-08,-16.570808712845,33.680916709709,-1.5649845068688997,0.48333333333333,50400.0,1.0,1100.0,530.0,0.2,17.0
718,15120000.0,175.0,-7.709926401790899e-05,0.00010457103989201,-2.7471775874099e-05,-2.1772512888807997e-07,2.7582328199913003e-07,-5.8098153111050997e-08,-16.570297632201,33.736416077303,-1.5625187874453998,0.48611111111111,50400.0,1.0,1100.0,530.0,0.2,17.0
722,15206400.0,176.0,-7.7383344840927e-05,0.00010496564703261,-2.7582302191684997e-05,-2.1952119870265001e-07,2.782001818378e-07,-5.8678983135153e-08,-16.569788944764,33.792867003508,-1.5597908945339,0.48888888888889,50400.0,1.0,1100.0,530.0,0.2,17.0
726,15292800.0,177.0,-7.7666155100891e-05,0.00010535854227506,-2.7692387174165e-05,-2.2131847176083002e-07,2.8057940368625e-07,-5.9260931925425004e-08,-16.569355452059,33.84939153987,-1.5570058575713,0.49166666666666997,50400.0,1.0,1100.0,530.0,0.2,17.0
730,15379200.0,178.0,-7.7948268978218e-05,0.00010575052763635,-2.780225865813e-05,-2.2312167835310998e-07,2.8296743160931e-07,-5.9845753256205e-08,-16.568877686623,33.905664190425,-1.5542521004745,0.49444444444444,50400.0,1.0,1100.0,530.0,0.2,17.0
734,15465600.0,179.0,-7.8229700347558e-05,0.00010614161690015,-2.7911916552595e-05,-2.2493080774033e-07,2.8536425402142e-07,-6.043344628109e-08,-16.568349731603,33.965560357968,-1.5506066912515,0.49722222222222,50400.0,1.0,1100.0,530.0,0.2,17.0
738,15552000.0,180.0,-7.8510468923519e-05,0.00010653183525048,-2.802136632696e-05,-2.2674594325531997e-07,2.8776998609775e-07,-6.1024042842427e-08,-16.567976940354,34.022534711494,-1.5476477064163998,0.5,50400.0,1.0,1100.0,530.0,0.2,17.0
741,15573600.0,180.25,-7.8510468923519e-05,0.00010653183525048,-2.802136632696e-05,-2.2674594325531997e-07,2.8776998609775e-07,-6.1024042842427e-08,0.32247161175258005,55.067310999959,40.312617874031,0.50069444444444,90000.0,3.0,25.0,25.0,0.1,0.1
745,15674400.0,181.41666666667,-7.8530033642191e-05,0.00010655574837072,-2.8025714728527e-05,-2.2686555900950999e-07,2.8792708689221e-07,-6.1061527882707e-08,-16.570840514903,34.045779505562,-1.5479848113461998,0.50393518518519,50400.0,1.0,1100.0,530.0,0.2,17.0
749,15760800.0,182.41666666667,-7.881059537996801e-05,0.0001069457559786,-2.8135160598628e-05,-2.2869163645268998e-07,2.9034853930148e-07,-6.1656902848789e-08,-16.567444631405,34.081550288385,-1.544750432713,0.50671296296296,50400.0,1.0,1100.0,530.0,0.2,17.0
753,15847200.0,183.41666666667,-7.908996363095501e-05,0.00010733414608598001,-2.8244182455025e-05,-2.3051889120171e-07,2.9277229689204e-07,-6.2253405690334e-08,-16.566977342421,34.136382461608,-1.5421845103066998,0.50949074074074,50400.0,1.0,1100.0,530.0,0.2,17.0
757,15933600.0,184.41666666667,-7.936866136903101e-05,0.00010772165703124,-2.8352995662205e-05,-2.3235197494724002e-07,2.9520473784408996e-07,-6.2852762896848e-08,-16.566469247043,34.190715114527,-1.5396893968685001,0.51226851851852,50400.0,1.0,1100.0,530.0,0.2,17.0
761,16020000.0,185.41666666667,-7.9646701156622e-05,0.00010810830418716,-2.8461603030536e-05,-2.3419091144684e-07,2.9764589563588e-07,-6.3454984189047e-08,-16.565999384614,34.246226115847996,-1.5369026710334,0.5150462962962999,50400.0,1.0,1100.0,530.0,0.2,17.0
765,16106400.0,186.41666666667,-7.9924084508131e-05,0.0001084940938101,-2.8570009301965996e-05,-2.3603576200007e-07,3.0009585107865e-07,-6.406008907857599e-08,-16.565575398534,34.299935225841,-1.5344955142238,0.51782407407407,50400.0,1.0,1100.0,530.0,0.2,17.0
769,16192800.0,187.41666666667,-8.020081316794e-05,0.00010887902546296,-2.8678212295021998e-05,-2.3788642544190002e-07,3.0255447308663e-07,-6.466804764472799e-08,-16.565095797549,34.353945124885,-1.5319285540533,0.52060185185185,50400.0,1.0,1100.0,530.0,0.2,17.0
773,16279200.0,188.41666666667,-8.0476890494176e-05,0.00010926310799693,-2.8786217502748998e-05,-2.3974304961796e-07,3.0502195925055e-07,-6.5278909632584e-08,-16.564705297548002,34.413808622162,-1.5279227523914,0.52337962962963,50400.0,1.0,1100.0,530.0,0.2,17.0
777,16365600.0,189.41666666667,-8.0752332542074e-05,0.00010964635841482,-2.8894025872746e-05,-2.4160554922234e-07,3.0749819796173e-07,-6.5892648739389e-08,-16.564232366604,34.472148913874,-1.5242931868116,0.52615740740741,50400.0,1.0,1100.0,530.0,0.2,17.0
781,16452000.0,190.41666666667,-8.1027125333818e-05,0.00011002876366873,-2.9001638334908002e-05,-2.4347392424253003e-07,3.099831829533e-07,-6.650925871076901e-08,-16.563773522327,34.528155198629996,-1.5212744641477,0.52893518518519,50400.0,1.0,1100.0,530.0,0.2,17.0
785,16538400.0,191.41666666667,-8.1301295099415e-05,0.00011041035551221001,-2.9109060412796e-05,-2.4534831331504997e-07,3.1247710731979e-07,-6.7128794004738e-08,-16.563443002147,34.58058751515,-1.5190496718130002,0.53171296296296,50400.0,1.0,1100.0,530.0,0.2,17.0
789,16624800.0,192.41666666667,-8.157485406298001e-05,0.00011079114925172,-2.9216295188741997e-05,-2.4722881357784e-07,3.1498010429153e-07,-6.775129071369501e-08,-16.562859395536,34.638096727417995,-1.5156179143622,0.53449074074074,50400.0,1.0,1100.0,530.0,0.2,17.0
793,16711200.0,193.41666666667,-8.1847786559986e-05,0.00011117112259426999,-2.9323336034279e-05,-2.4911515286651003e-07,3.1749180376036e-07,-6.837665089385201e-08,-16.562609480514,34.691501304299,-1.5128212598444,0.53726851851852,50400.0,1.0,1100.0,530.0,0.2,17.0
797,16797600.0,194.41666666667,-8.2120136347515e-05,0.00011155033294081001,-2.9430196593299e-05,-2.5100770601718e-07,3.2001271939541e-07,-6.9005013378237e-08,-16.562159187627,34.746135544215,-1.5100300709352,0.5400462962963,50400.0,1.0,1100.0,530.0,0.2,17.0
801,16884000.0,195.41666666667,-8.2392394809218e-05,0.00011192945399261999,-2.9537059183404998e-05,-2.5291070771212e-07,3.2254866384351e-07,-6.9637956131392e-08,-16.561705205899,34.802981548112996,-1.5066706159294,0.54282407407407,50400.0,1.0,1100.0,530.0,0.2,17.0
805,16970400.0,196.41666666667,-8.2664049811301e-05,0.00011230778252661,-2.9643732715312e-05,-2.5481962181865e-07,3.2509342368738e-07,-7.027380186872999e-08,-16.561291009368,34.85731648191,-1.5039248543335,0.54560185185185,50400.0,1.0,1100.0,530.0,0.2,17.0
809,17056800.0,197.41666666667,-8.2935109617211e-05,0.00011268532887593999,-2.9750219258727e-05,-2.5673447029465e-07,3.2764703141857e-07,-7.0912561123918e-08,-16.560801486014,34.914364715816,-1.5004815064610002,0.54837962962963,50400.0,1.0,1100.0,530.0,0.2,17.0
813,17143200.0,198.41666666667,-8.320557455934101e-05,0.00011306209344974,-2.9856518890394e-05,-2.5865523663838e-07,3.302094647139e-07,-7.1554228075527e-08,-16.560306236561,34.969956960058,-1.4973830985013998,0.55115740740741,50400.0,1.0,1100.0,530.0,0.2,17.0
817,17229600.0,199.41666666667,-8.3475444221354e-05,0.00011343807497563,-2.9962630754276e-05,-2.6058189870682e-07,3.3278069280534e-07,-7.2198794098516e-08,-16.559878778046,35.023319390485,-1.4947825502935999,0.5539351851851899,50400.0,1.0,1100.0,530.0,0.2,17.0
821,17316000.0,200.41666666667,-8.374473167542099e-05,0.00011381329047031001,-3.0068558794885e-05,-2.6251447384952996e-07,3.3536074505836e-07,-7.2846271208838e-08,-16.559437836339,35.078043756191,-1.4918496339367,0.5567129629629599,50400.0,1.0,1100.0,530.0,0.2,17.0
825,17402400.0,201.41666666667,-8.401343631325e-05,0.00011418773884398999,-3.0174302530738e-05,-2.6445296111106e-07,3.3794961892873e-07,-7.3496657817674e-08,-16.558981794629,35.13355866844,-1.4886926085764,0.55949074074074,50400.0,1.0,1100.0,530.0,0.2,17.0
829,17488800.0,202.41666666667,-8.4281567307725e-05,0.00011456143154358001,-3.0279864235859004e-05,-2.6639736630877e-07,3.4054732580613e-07,-7.4149959497359e-08,-16.558499869817,35.189753075713,-1.4853400500196001,0.56226851851852,50400.0,1.0,1100.0,530.0,0.2,17.0
833,17575200.0,203.41666666667,-8.4548763505435e-05,0.00011493386668319,-3.0385103177758002e-05,-2.6834426248504e-07,3.4314914625927e-07,-7.4804883774231e-08,-16.557977300257,35.24323793453,-1.4825962685962,0.5650462962963001,50400.0,1.0,1100.0,530.0,0.2,17.0
837,17661600.0,204.41666666667,-8.4815434368698e-05,0.00011530560707348001,-3.0490172704784997e-05,-2.7029736446855004e-07,3.4576019513449e-07,-7.5462830665947e-08,-16.557564841961,35.298384518772004,-1.4794616445291,0.56782407407407,50400.0,1.0,1100.0,530.0,0.2,17.0
841,17748000.0,205.41666666667,-8.5081569248624e-05,0.00011567664123896001,-3.0595071990331e-05,-2.7225658173351e-07,3.4838034835683e-07,-7.6123766623323e-08,-16.557033944472998,35.352332055435,-1.476531672181,0.57060185185185,50400.0,1.0,1100.0,530.0,0.2,17.0
845,17834400.0,206.41666666667,-8.5347164655598e-05,0.00011604696351763,-3.0699798862032e-05,-2.7422178951484e-07,3.5100944065368e-07,-7.6787651138838e-08,-16.556602127212,35.407891303021,-1.4732557967631,0.57337962962963,50400.0,1.0,1100.0,530.0,0.2,17.0
849,17920800.0,207.41666666667,-8.561223223399e-05,0.00011641658880531999,-3.0804356571331e-05,-2.761930886892e-07,3.5364760782526e-07,-7.7454519136055e-08,-16.556106051281,35.462302911682,-1.4702373617101,0.5761574074074101,50400.0,1.0,1100.0,530.0,0.2,17.0
853,18007200.0,208.41666666667,-8.5876772424827e-05,0.00011678551754148001,-3.0908745116652e-05,-2.7817041250854e-07,3.5629476384156e-07,-7.8124351333024e-08,-16.555698263559,35.516674455617,-1.4671807059941,0.5789351851851899,50400.0,1.0,1100.0,530.0,0.2,17.0
857,18093600.0,209.41666666667,-8.6140771916653e-05,0.00011715373475419,-3.1012962837537e-05,-2.801536720309e-07,3.5895078711814e-07,-7.8797115087239e-08,-16.555247879111,35.568825243511,-1.4646288820463003,0.5817129629629599,50400.0,1.0,1100.0,530.0,0.2,17.0
861,18180000.0,210.41666666667,-8.6404266415967e-05,0.00011752128430988999,-3.1117017893924e-05,-2.8214310772202e-07,3.6161601120049e-07,-7.9472903478471e-08,-16.554751949518,35.6224983977,-1.4616907208418,0.58449074074074,50400.0,1.0,1100.0,530.0,0.2,17.0
865,18266400.0,211.41666666667,-8.6667247686727e-05,0.0001178881560947,-3.1220908407971996e-05,-2.8413862459354e-07,3.64290305484e-07,-8.015168089046299e-08,-16.554356468446,35.675553349485,-1.4589468260806,0.58726851851852,50400.0,1.0,1100.0,530.0,0.2,17.0
869,18352800.0,212.41666666667,-8.692970408875699e-05,0.00011825433494577,-3.1324630857016e-05,-2.8614008569840004e-07,3.6697348306138e-07,-8.0833397362979e-08,-16.553938526908,35.724337004153,-1.4570948775553,0.5900462962963001,50400.0,1.0,1100.0,530.0,0.2,17.0
873,18439200.0,213.41666666667,-8.7191701935051e-05,0.00011861990775598,-3.1428205820928997e-05,-2.8814803794325e-07,3.6966630615116e-07,-8.1518268207907e-08,-16.553480553070003,35.784593163446004,-1.452974919828,0.5928240740740699,50400.0,1.0,1100.0,530.0,0.2,17.0
877,18525600.0,214.41666666667,-8.7453116746204e-05,0.00011898471270072,-3.1531595954521e-05,-2.9016127469659996e-07,3.7236710815546997e-07,-8.220583345886401e-08,-16.553077027197002,35.834437005036996,-1.4508725776271998,0.59560185185185,50400.0,1.0,1100.0,530.0,0.2,17.0
881,18612000.0,215.41666666667,-8.7714017817957e-05,0.00011934883910228,-3.1634821284319e-05,-2.9218045872237e-07,3.7507680182998e-07,-8.2896343107612e-08,-16.552570118201,35.888239831354,-1.4478439126567,0.59837962962963,50400.0,1.0,1100.0,530.0,0.2,17.0
885,18698400.0,216.41666666667,-8.79743978519e-05,0.0001197122788094,-3.1737880957503e-05,-2.9420553932743e-07,3.7779531504720997e-07,-8.3589775719779e-08,-16.552179809993,35.938560040945,-1.4456036197242998,0.6011574074074101,50400.0,1.0,1100.0,530.0,0.2,17.0
889,18784800.0,217.41666666667,-8.8234280724439e-05,0.00012007506415443001,-3.1840783429988004e-05,-2.9623633560632e-07,3.8052245856805e-07,-8.4286122961733e-08,-16.551746281015,35.990363366078,-1.4430084934358,0.60393518518519,50400.0,1.0,1100.0,530.0,0.2,17.0
893,18871200.0,218.41666666667,-8.8493648379071e-05,0.00012043717029118999,-3.1943521912121996e-05,-2.982732138086e-07,3.8325864388439e-07,-8.4985430075791e-08,-16.551292629105,36.034329397867,-1.4416992264207,0.60671296296296,50400.0,1.0,1100.0,530.0,0.2,17.0
897,18957600.0,219.41666666667,-8.8752590998665e-05,0.00012079870863158,-3.2046117632915e-05,-3.0031662271820004e-07,3.8600454624334003e-07,-8.5687923525138e-08,-16.550843643794998,36.085431071297,-1.4391982021638998,0.6094907407407401,50400.0,1.0,1100.0,530.0,0.2,17.0
901,19044000.0,220.41666666667004,-8.901104621798299e-05,0.00012115960261853001,-3.2148556400545e-05,-3.0236597833379e-07,3.8875935674302e-07,-8.6393378409233e-08,-16.550414600943,36.13720485982,-1.4365076716657001,0.61226851851852,50400.0,1.0,1100.0,530.0,0.2,17.0
905,19130400.0,221.41666666667004,-8.926901335911701e-05,0.00012151985053781001,-3.2250837178690004e-05,-3.0442126470902e-07,3.9152305452062003e-07,-8.710178981160199e-08,-16.549999162542,36.187805259436004,-1.434112719402,0.6150462962963,50400.0,1.0,1100.0,530.0,0.2,17.0
909,19216800.0,222.41666666667004,-8.9526499963162e-05,0.00012187946360156,-3.23529636384e-05,-3.0648247947588e-07,3.9429564201967e-07,-8.781316254378999e-08,-16.549573107253998,36.239548895491,-1.431365003811,0.6178240740740699,50400.0,1.0,1100.0,530.0,0.2,17.0
913,19303200.0,223.41666666667004,-8.978350419635401e-05,0.00012223843888581998,-3.2454934689468e-05,-3.0854961517007e-07,3.9707710630774003e-07,-8.8527491137676e-08,-16.549159466691002,36.289165884632,-1.4291374475239,0.62060185185185,50400.0,1.0,1100.0,530.0,0.2,17.0
917,19389600.0,224.41666666667004,-9.0040030235833e-05,0.00012259678003823002,-3.2556749802392997e-05,-3.1062264599937e-07,3.998674150685e-07,-8.9244769069133e-08,-16.548733183611,36.340857859138,-1.4264516985707,0.62337962962963,50400.0,1.0,1100.0,530.0,0.2,17.0
921,19476000.0,225.41666666667004,-9.029609104129301e-05,0.00012295450705212,-3.2658416010829997e-05,-3.1270166555976e-07,4.0266669922716e-07,-8.9965033667402e-08,-16.548275291078998,36.393070172738,-1.4235419668912,0.6261574074074101,50400.0,1.0,1100.0,530.0,0.2,17.0
925,19562400.0,226.41666666667004,-9.055168039344301e-05,0.00012331160971684,-3.27599293234e-05,-3.1478656022757e-07,4.0547480626610997e-07,-9.0688246038544e-08,-16.547871494469,36.444248791348,-1.4209428930881,0.6289351851851899,50400.0,1.0,1100.0,530.0,0.2,17.0
929,19648800.0,227.41666666667004,-9.080679911164201e-05,0.00012366808860408,-3.2861289492436997e-05,-3.1687732847964e-07,4.0829173109389e-07,-9.1414402614246e-08,-16.547435485,36.493751994191996,-1.4186419981083,0.63171296296296,50400.0,1.0,1100.0,530.0,0.2,17.0
933,19735200.0,228.41666666667004,-9.1061450547681e-05,0.00012402395514736998,-3.2962504599684005e-05,-3.1897394692618e-07,4.1111747961606004e-07,-9.214353268987401e-08,-16.547053400711,36.543352261226,-1.4162920891428,0.63449074074074,50400.0,1.0,1100.0,530.0,0.2,17.0
937,19821600.0,229.41666666667004,-9.131563478835601e-05,0.00012437920373583,-3.306356894747e-05,-3.2107643179538997e-07,4.1395204294364e-07,-9.287561114824999e-08,-16.546592795348,36.592168779829,-1.4141549031713998,0.63726851851852,50400.0,1.0,1100.0,530.0,0.2,17.0
941,19908000.0,230.41666666667004,-9.1569367354741e-05,0.00012473384493733,-3.3164477582589005e-05,-3.2318475517598e-07,4.1679536263342e-07,-9.361060745744301e-08,-16.546174933594,36.644126309788,-1.4112710467351002,0.6400462962963,50400.0,1.0,1100.0,530.0,0.2,17.0
945,19994400.0,231.41666666667004,-9.182264579265999e-05,0.00012508789272637,-3.3265246933714e-05,-3.2529908063465e-07,4.1964770719619e-07,-9.434862656153999e-08,-16.5457699934,36.694292441907,-1.4087969291766997,0.6428240740740699,50400.0,1.0,1100.0,530.0,0.2,17.0
949,20080800.0,232.41666666667004,-9.2075473293249e-05,0.00012544134100458,-3.3365867711328005e-05,-3.2741926641889e-07,4.2250886112793997e-07,-9.5089594709049e-08,-16.545332914205,36.743259454856,-1.4065132754853,0.64560185185185,50400.0,1.0,1100.0,530.0,0.2,17.0
953,20167200.0,233.41666666667004,-9.232784982413801e-05,0.00012579419134956,-3.3466341525417e-05,-3.2954531540323e-07,4.2537883551064e-07,-9.583352010740802e-08,-16.544882394527,36.792120385988,-1.4042955396177,0.64837962962963,50400.0,1.0,1100.0,530.0,0.2,17.0
957,20253600.0,234.41666666667004,-9.2579781149869e-05,0.00012614645089401,-3.3566669744136e-05,-3.3167723829099e-07,4.2825764575658e-07,-9.658040746559199e-08,-16.544537215068,36.841699103859,-1.4018953833096999,0.65115740740741,50400.0,1.0,1100.0,530.0,0.2,17.0
961,20340000.0,235.41666666667004,-9.2831271407384e-05,0.00012649812728216,-3.3666855874774e-05,-3.3381510033715e-07,4.3114538115507e-07,-9.7330280817915e-08,-16.544113966267,36.890973522619,-1.3995117253432,0.6539351851851899,50400.0,1.0,1100.0,530.0,0.2,17.0
965,20426400.0,236.41666666667004,-9.3082308548261e-05,0.0001268492050965,-3.3766896548235e-05,-3.3595869543102e-07,4.340417671016e-07,-9.8083071670579e-08,-16.543706165622,36.941547803254,-1.3968610210514,0.6567129629629599,50400.0,1.0,1100.0,530.0,0.2,17.0
969,20512800.0,237.41666666667004,-9.3332917996486e-05,0.00012719971306498001,-3.3866795068490995e-05,-3.3810826242563e-07,4.3694711984492996e-07,-9.8838857419299e-08,-16.543264321057,36.989832727334,-1.3946742174313997,0.65949074074074,50400.0,1.0,1100.0,530.0,0.2,17.0
973,20599200.0,238.41666666667004,-9.3583091422561e-05,0.00012754964410429,-3.3966552681732e-05,-3.4026369789953e-07,4.3986131180720997e-07,-9.959761390767801e-08,-16.542834486709,37.039148316377,-1.3922546325978002,0.66226851851852,50400.0,1.0,1100.0,530.0,0.2,17.0
977,20685600.0,239.41666666667004,-9.3832840258614e-05,0.00012789901097092,-3.4066170712308e-05,-3.4242742871490996e-07,4.4278942184004003e-07,-1.0036199312512e-07,-16.542458602848,37.087526206068,-1.3900320768216001,0.6650462962963001,50400.0,1.0,1100.0,530.0,0.2,17.0
981,20772000.0,240.41666666667004,-9.4082159120475e-05,0.00012824780620941,-3.4165647088934996e-05,-3.4459695198940003e-07,4.4572627907525995e-07,-1.0112932708587e-07,-16.542032715373,37.138061686941,-1.3873086131788,0.66782407407407,50400.0,1.0,1100.0,530.0,0.2,17.0
985,20858400.0,241.41666666667004,-9.4331060912648e-05,0.0001285960434543,-3.4264982541647e-05,-3.4677242561548e-07,4.4867208886413e-07,-1.0189966324864e-07,-16.541620728815,37.1859167973,-1.3851750912425,0.67060185185185,50400.0,1.0,1100.0,530.0,0.2,17.0
989,20944800.0,242.41666666667004,-9.4579547814547e-05,0.00012894372834466002,-3.4364180530118e-05,-3.4895376206537e-07,4.5162674670531997e-07,-1.0267298463994e-07,-16.541231830183,37.235543226936,-1.3826026507161,0.67337962962963,50400.0,1.0,1100.0,530.0,0.2,17.0
993,21031200.0,243.41666666667004,-9.4827614973154e-05,0.00012929085842073999,-3.4463243447585996e-05,-3.5114102968759e-07,4.5459034083966997e-07,-1.0344931115207999e-07,-16.540853732123,37.282879946403,-1.3805481772975001,0.67615740740741,50400.0,1.0,1100.0,530.0,0.2,17.0
997,21117600.0,244.41666666667004,-9.5075262441092e-05,0.00012963743006666999,-3.4562167625574e-05,-3.5333407121886e-07,4.5756266576408005e-07,-1.0422859454523e-07,-16.540400950013,37.330797304881,-1.3783570658578999,0.67893518518519,50400.0,1.0,1100.0,530.0,0.2,17.0
1001,21204000.0,245.41666666667004,-9.5322494901974e-05,0.00012998344865452,-3.4660953752543e-05,-3.5553533617116e-07,4.6054882046912e-07,-1.0501348429796e-07,-16.539985168881,37.378249464307,-1.3762733162304,0.68171296296296,50400.0,1.0,1100.0,530.0,0.2,17.0
1005,21290400.0,246.41666666667004,-9.556931699899e-05,0.00013032892003707,-3.4759603038083e-05,-3.5774247720577e-07,4.6354384699027004e-07,-1.0580136978450001e-07,-16.539612023110003,37.427531279376,-1.3737149374486002,0.68449074074074,50400.0,1.0,1100.0,530.0,0.2,17.0
1009,21376800.0,247.41666666667004,-9.5815745573708e-05,0.00013067386687916002,-3.4858121305453005e-05,-3.5995560119873e-07,4.6654790096042e-07,-1.0659229976169e-07,-16.539253272075,37.475769253626,-1.3714644155770002,0.68726851851852,50400.0,1.0,1100.0,530.0,0.2,17.0
1013,21463200.0,248.41666666667004,-9.606177323666999e-05,0.00013101827947697,-3.4956506240297e-05,-3.6217461636981e-07,4.6956085457805e-07,-1.0738623820823e-07,-16.538928634033,37.523638867469,-1.3692195903068998,0.6900462962963,50400.0,1.0,1100.0,530.0,0.2,17.0
1017,21549600.0,249.41666666667004,-9.6307397369157e-05,0.00013136215245693,-3.5054755087776004e-05,-3.6439938300957e-07,4.7258252195172e-07,-1.0818313894216001e-07,-16.538429521323,37.571169800385,-1.3670344339639,0.69282407407407,50400.0,1.0,1100.0,530.0,0.2,17.0
1021,21636000.0,250.41666666667004,-9.655262292365e-05,0.00013170549576428,-3.5152872840632e-05,-3.6663003728904e-07,4.7561309209356003e-07,-1.0898305480452001e-07,-16.538007257815,37.618565578267,-1.3648978982271,0.69560185185185,50400.0,1.0,1100.0,530.0,0.2,17.0
1025,21722400.0,251.41666666667004,-9.6797470147712e-05,0.00013204833816926002,-3.5250868021549e-05,-3.6886678819756e-07,4.7865286247171e-07,-1.0978607427414e-07,-16.537615984633998,37.665792775237,-1.3627059056838,0.69837962962963,50400.0,1.0,1100.0,530.0,0.2,17.0
1029,21808800.0,252.41666666667004,-9.7041907801473e-05,0.00013239063191911,-3.5348724117634995e-05,-3.7110915395739e-07,4.817011543482601e-07,-1.1059200039087e-07,-16.537208496744,37.714102468407,-1.3603546810701002,0.70115740740741,50400.0,1.0,1100.0,530.0,0.2,17.0
1033,21895200.0,253.41666666667004,-9.7285977426103e-05,0.00013273242632185,-3.5446448895744e-05,-3.7335733041117e-07,4.847582642451101e-07,-1.1140093383394e-07,-16.536770213177,37.761879404118,-1.3580782701623002,0.7039351851851899,50400.0,1.0,1100.0,530.0,0.2,17.0
1037,21981600.0,254.41666666667004,-9.752966369615e-05,0.00013307371638258999,-3.5544052686440995e-05,-3.7561148258414e-07,4.8782442355814e-07,-1.12212940974e-07,-16.536423427159,37.808656002466,-1.3559042655085,0.70671296296296,50400.0,1.0,1100.0,530.0,0.2,17.0
1041,22068000.0,255.41666666667004,-9.777296937786601e-05,0.00013341449606574,-3.5641526687875e-05,-3.7787151409596e-07,4.908994729872099e-07,-1.1302795889124e-07,-16.536008391985,37.855483979051,-1.3537851277682,0.70949074074074,50400.0,1.0,1100.0,530.0,0.2,17.0
1045,22154400.0,256.41666666667004,-9.801588706961601e-05,0.00013375476368401,-3.5738876614393e-05,-3.8013768397366e-07,4.9398375800485e-07,-1.1384607403118999e-07,-16.535678452935,37.902972079775,-1.3515752177962,0.71226851851852,50400.0,1.0,1100.0,530.0,0.2,17.0
1049,22240800.0,257.41666666667004,-9.825844080722901e-05,0.00013409454096006,-3.5836100152835996e-05,-3.8240960631373e-07,4.970767902784999e-07,-1.1466718396476e-07,-16.535252035574,37.951370814450996,-1.348991869396,0.7150462962963,50400.0,1.0,1100.0,530.0,0.2,17.0
1053,22327200.0,258.41666666667004,-9.8500606490513e-05,0.00013443380004181,-3.5933193551299e-05,-3.8468722732057e-07,5.0017848506749e-07,-1.1549125774691998e-07,-16.534789458289,37.998291545519,-1.346834477687,0.71782407407407,50400.0,1.0,1100.0,530.0,0.2,17.0
1057,22413600.0,259.41666666667004,-9.8742400890989e-05,0.00013477256402614,-3.6030163135153e-05,-3.8697071940614e-07,5.032890840281399e-07,-1.16318364622e-07,-16.534388436577,38.044971052689,-1.3447062089977,0.72060185185185,50400.0,1.0,1100.0,530.0,0.2,17.0
1061,22500000.0,260.41666666667004,-9.8983839339097e-05,0.00013511085101028,-3.6127011671184996e-05,-3.8926021700046e-07,5.0640876095722e-07,-1.1714854395676e-07,-16.534115516991,38.092912925007,-1.3422522603957001,0.72337962962963,50400.0,1.0,1100.0,530.0,0.2,17.0
1065,22586400.0,261.41666666667004,-9.922489758795699e-05,0.00013544863090039,-3.6223733312437e-05,-3.9155544052315997e-07,5.0953713963357e-07,-1.1798169911041999e-07,-16.533734996486,38.140232772307,-1.3398908557006999,0.72615740740741,50400.0,1.0,1100.0,530.0,0.2,17.0
1069,22672800.0,262.41666666667004,-9.946559609318101e-05,0.00013578593132,-3.6320335226821004e-05,-3.9385666497971e-07,5.126745966758799e-07,-1.1881793169617e-07,-16.533367713272,38.186893343411,-1.3374620868798999,0.72893518518519,50400.0,1.0,1100.0,530.0,0.2,17.0
1073,22759200.0,263.41666666667004,-9.9705827745923e-05,0.00013612262863011999,-3.6416800884194e-05,-3.9616298802052997e-07,5.1581987154428e-07,-1.1965688352374e-07,-16.533079698688,38.233374417840004,-1.3353132354844,0.73171296296296,50400.0,1.0,1100.0,530.0,0.2,17.0
1077,22845600.0,264.41666666667004,-9.994578511238901e-05,0.00013645893382852,-3.6513148716127e-05,-3.9847568083104e-07,5.1897474900316e-07,-1.2049906817212e-07,-16.532547482086,38.281237671949,-1.3328552352311003,0.7344907407407401,50400.0,1.0,1100.0,530.0,0.2,17.0
1081,22932000.0,265.41666666667004,-0.00010018541924935,0.00013679480807199,-3.6609388822638e-05,-4.0079479750243e-07,5.2213929203419e-07,-1.2134449453175002e-07,-16.532121867565998,38.329082909848,-1.3302065133573,0.73726851851852,50400.0,1.0,1100.0,530.0,0.2,17.0
1085,23018400.0,266.41666666667004,-0.00010042467740358,0.00013713018671536,-3.6705509311782e-05,-4.0312008086233e-07,5.2531310560963e-07,-1.2219302474729e-07,-16.531828915776,38.376824230673,-1.3277965343801998,0.7400462962963,50400.0,1.0,1100.0,530.0,0.2,17.0
1089,23104800.0,267.41666666667004,-0.000100663602602,0.00013746510355971001,-3.6801500957709e-05,-4.0545095018783e-07,5.284954414663299e-07,-1.2304449127850002e-07,-16.531350731148,38.425122231962,-1.3250446015822,0.74282407407407,50400.0,1.0,1100.0,530.0,0.2,17.0
1093,23191200.0,268.41666666667004,-0.00010090217438185,0.0001377995556886,-3.6897381306758e-05,-4.0778789953281996e-07,5.316869715553701e-07,-1.2389907202256e-07,-16.53109783252,38.471741931094996,-1.3228606230562,0.74560185185185,50400.0,1.0,1100.0,530.0,0.2,17.0
1097,23277600.0,269.41666666667004,-0.00010114037952524001,0.00013813350953304,-3.6993130007804e-05,-4.1013041862822e-07,5.3488698330584e-07,-1.2475656467762e-07,-16.530715607363,38.517365605401004,-1.3208145536306999,0.74837962962963,50400.0,1.0,1100.0,530.0,0.2,17.0
1101,23364000.0,270.41666666667004,-0.00010137823938929,0.00013846700131518998,-3.7088761925899e-05,-4.1247884565594003e-07,5.3809595506185e-07,-1.2561710940591e-07,-16.530337777907,38.56309616722,-1.3187297381238998,0.75115740740741,50400.0,1.0,1100.0,530.0,0.2,17.0
1105,23450400.0,271.41666666667004,-0.00010161575278342,0.00013880002674843998,-3.7184273965021996e-05,-4.1483314903083e-07,5.4131384438715e-07,-1.2648069535631e-07,-16.529869915360997,38.611718232696,-1.3159150225253,0.75393518518519,50400.0,1.0,1100.0,530.0,0.2,17.0
1109,23536800.0,272.41666666667004,-0.00010185294949382,0.00013913262408099,-3.7279674587175e-05,-4.1719353553913e-07,5.4454094576146e-07,-1.2734741022232e-07,-16.529444525069,38.658153961935,-1.3135352803087,0.75671296296296,50400.0,1.0,1100.0,530.0,0.2,17.0
1113,23623200.0,273.41666666667004,-0.0001020897973812,0.00013946475336981,-3.7374955988613e-05,-4.1955964760523e-07,5.4777675983369e-07,-1.2821711222846e-07,-16.529075380703002,38.707874553576005,-1.3105987644143,0.75949074074074,50400.0,1.0,1100.0,530.0,0.2,17.0
1117,23709600.0,274.41666666667004,-0.00010232633543965,0.00013979646647351002,-3.7470131033857e-05,-4.2193207489346e-07,5.5102210758301e-07,-1.2909003268955e-07,-16.528680090536998,38.755124627532,-1.3081404253467,0.76226851851852,50400.0,1.0,1100.0,530.0,0.2,17.0
1121,23796000.0,275.41666666667004,-0.00010256255576013,0.00014012774916794,-3.756519340781e-05,-4.2431057021053e-07,5.5427664828291e-07,-1.2996607807238e-07,-16.528157606243997,38.802858526268004,-1.305409113237,0.7650462962962999,50400.0,1.0,1100.0,530.0,0.2,17.0
1125,23882400.0,276.41666666667004,-0.00010279846365452,0.00014045860994385,-3.7660146289323e-05,-4.2669517825937e-07,5.575404447801799e-07,-1.3084526652082e-07,-16.527752856636,38.849000878719,-1.3031004932554,0.76782407407407,50400.0,1.0,1100.0,530.0,0.2,17.0
1129,23968800.0,277.41666666667004,-0.0001030340616422,0.00014078905045468,-3.7754988812482e-05,-4.2908586776824e-07,5.6081345574744e-07,-1.3172758797919e-07,-16.527482180116,38.896164697672,-1.3006836545418001,0.77060185185185,50400.0,1.0,1100.0,530.0,0.2,17.0
1133,24055200.0,278.41666666667004,-0.00010326930505611999,0.00014111902354418,-3.7849718488061e-05,-4.3148242865445e-07,5.6409538277539e-07,-1.3261295412093e-07,-16.527303448077,38.945283647382,-1.297647710517,0.77337962962963,50400.0,1.0,1100.0,530.0,0.2,17.0
1137,24141600.0,279.41666666667004,-0.00010350423122459,0.00014144856293991,-3.7944331715325e-05,-4.3388472714567004e-07,5.6738605534813e-07,-1.3350132820246e-07,-16.52679272845,38.992158804126,-1.2951831382128,0.77615740740741,50400.0,1.0,1100.0,530.0,0.2,17.0
1141,24228000.0,280.41666666667004,-0.00010373885756321,0.00014177769461481,-3.8038837051606e-05,-4.3629314900105e-07,5.706860096835e-07,-1.3439286068245e-07,-16.526504108535,39.039405924822,-1.2925355300598997,0.77893518518519,50400.0,1.0,1100.0,530.0,0.2,17.0
1145,24314400.0,281.41666666667004,-0.00010397314245219,0.00014210638082109,-3.81332383689e-05,-4.3870765700358e-07,5.739951907205999e-07,-1.3528753371702002e-07,-16.526039294765,39.085290949822,-1.2902304661488002,0.78171296296296,50400.0,1.0,1100.0,530.0,0.2,17.0
1149,24400800.0,282.41666666667004,-0.00010420712384376,0.00014243465422533,-3.822753038157e-05,-4.4112818439435997e-07,5.7731350517811e-07,-1.3618532078374e-07,-16.525709500592,39.133927277258,-1.2873086666402,0.78449074074074,50400.0,1.0,1100.0,530.0,0.2,17.0
1153,24487200.0,283.41666666667004,-0.00010444080702344,0.00014276251787773,-3.8321710854295e-05,-4.4355460061960003e-07,5.8064078883329e-07,-1.3708618821368998e-07,-16.525071278694,39.179985271782996,-1.2849257512706,0.78726851851852,50400.0,1.0,1100.0,530.0,0.2,17.0
1157,24573600.0,284.41666666667004,-0.00010467419368443,0.00014308998450551002,-3.8415790821075e-05,-4.4598729467726003e-07,5.8397756877461e-07,-1.3799027409734002e-07,-16.5247961484,39.228442411841,-1.2821055512683002,0.7900462962963,50400.0,1.0,1100.0,530.0,0.2,17.0
1161,24660000.0,285.41666666667004,-0.00010490725590024001,0.00014341701598184,-3.8509760081596004e-05,-4.4842583877558004e-07,5.8732325155996e-07,-1.3889741278438e-07,-16.524363817679,39.275378617587,-1.2795630345494,0.79282407407407,50400.0,1.0,1100.0,530.0,0.2,17.0
1165,24746400.0,286.41666666667004,-0.00010514000329455,0.0001437436348812,-3.8603631586654e-05,-4.5087063807418e-07,5.9067839586846e-07,-1.3980775779428e-07,-16.523925628478,39.317621040832,-1.2781093872338998,0.79560185185185,50400.0,1.0,1100.0,530.0,0.2,17.0
1169,24832800.0,287.41666666667004,-0.00010537245033377,0.0001440698401009,-3.8697389767124e-05,-4.5332108100909003e-07,5.940421837367e-07,-1.4072110272761e-07,-16.523669328848,39.364215365321996,-1.2754837420223,0.79837962962963,50400.0,1.0,1100.0,530.0,0.2,17.0
1173,24919200.0,288.41666666667004,-0.00010560459290273,0.00014439563666705,-3.8791043764318e-05,-4.5577760328372e-07,5.9741519302095e-07,-1.4163758973722e-07,-16.52323665333,39.410763132389,-1.2730533549493,0.80115740740741,50400.0,1.0,1100.0,530.0,0.2,17.0
1177,25005600.0,289.41666666667004,-0.00010583644644413,0.00014472103872453999,-3.8884592280409005e-05,-4.5824011132662e-07,6.0079731681012e-07,-1.425572054835e-07,-16.522764118989,39.460660789241,-1.2697088817152,0.80393518518519,50400.0,1.0,1100.0,530.0,0.2,17.0
1181,25092000.0,290.41666666667004,-0.00010606799798706,0.00014504603218087,-3.8978034193809004e-05,-4.6070851211204007e-07,6.0418841779637e-07,-1.4347990568432e-07,-16.5223656744,39.506081192193996,-1.2674998594421,0.80671296296296,50400.0,1.0,1100.0,530.0,0.2,17.0
1185,25178400.0,291.41666666667004,-0.00010629926613272,0.00014537064137316,-3.9071375240441e-05,-4.6318299726841004e-07,6.075887700514599e-07,-1.4440577278304998e-07,-16.52200437494,39.550234148757,-1.2654062090836,0.80949074074074,50400.0,1.0,1100.0,530.0,0.2,17.0
1189,25264800.0,292.41666666667004,-0.00010653021976865,0.00014569483106626,-3.9164611297606e-05,-4.6566338148506e-07,6.1099810060936e-07,-1.4533471912429998e-07,-16.521573914599,39.598392376637996,-1.2625008183089,0.81226851851852,50400.0,1.0,1100.0,530.0,0.2,17.0
1193,25351200.0,293.41666666667004,-0.00010676090758276999,0.00014601865634544,-3.9257748762673e-05,-4.6814993253920004e-07,6.144168065996e-07,-1.4626687406039998e-07,-16.521239759942,39.642891315353,-1.2603620719916,0.8150462962963,50400.0,1.0,1100.0,530.0,0.2,17.0
1197,25437600.0,294.41666666667004,-0.00010699128686741999,0.00014634206811818,-3.9350781250761e-05,-4.7064238016555994e-07,6.1784448874087e-07,-1.4720210857530998e-07,-16.520831575376,39.689415811567,-1.2578175854388,0.81782407407407,50400.0,1.0,1100.0,530.0,0.2,17.0
1201,25524000.0,295.41666666667004,-0.00010722139684713001,0.00014666511275823,-3.9443715911096005e-05,-4.7314094312753e-07,6.2128147186165e-07,-1.4814052873412e-07,-16.52035299083,39.735721372872,-1.2552828323316,0.82060185185185,50400.0,1.0,1100.0,530.0,0.2,17.0
1205,25610400.0,296.41666666667004,-0.00010745122428272,0.00014698777405171,-3.9536549768984e-05,-4.756454433256e-07,6.247275180993e-07,-1.4908207477370003e-07,-16.519908262341,39.783093201945,-1.2524657147556002,0.82337962962963,50400.0,1.0,1100.0,530.0,0.2,17.0
1209,25696800.0,297.41666666667004,-0.00010768076137435,0.00014731004676037,-3.9629285386019e-05,-4.7815597539915e-07,6.2818274689739e-07,-1.5002677149823e-07,-16.519816486148,39.830508647059,-1.2496483321658998,0.82615740740741,50400.0,1.0,1100.0,530.0,0.2,17.0
1213,25783200.0,298.41666666667004,-0.00010791000851478,0.00014763192499511,-3.9721916480327e-05,-4.8067233778477e-07,6.3164687473117e-07,-1.509745369464e-07,-16.519299395244,39.876554915557996,-1.2472037649652,0.8289351851851899,50400.0,1.0,1100.0,530.0,0.2,17.0
1217,25869600.0,299.41666666667004,-0.00010813897610946,0.00014795342795459,-3.9814451845128e-05,-4.8319491857497e-07,6.3512043908275e-07,-1.5192552050778e-07,-16.518995367528,39.921105298011,-1.2449804767645,0.83171296296296,50400.0,1.0,1100.0,530.0,0.2,17.0
1221,25956000.0,300.41666666667004,-0.00010836767294461,0.00014827455590897,-3.9906882964355e-05,-4.857233367986e-07,6.386029407862099e-07,-1.5287960398761e-07,-16.518586262741998,39.965478685449,-1.2428751961031,0.83449074074074,50400.0,1.0,1100.0,530.0,0.2,17.0
1225,26042400.0,301.41666666667004,-0.00010859607672953,0.00014859529258063998,-3.9999215851114e-05,-4.8825776849991e-07,6.420945831271999e-07,-1.5383681462729e-07,-16.518212010472,40.011041004226,-1.240390615245,0.83726851851852,50400.0,1.0,1100.0,530.0,0.2,17.0
1229,26128800.0,302.41666666667004,-0.00010882418530092,0.0001489156308299,-4.0091445528982e-05,-4.907978148597201e-07,6.45594851212e-07,-1.5479703635228e-07,-16.51785066718,40.055047362583,-1.2384590927196,0.8400462962963,50400.0,1.0,1100.0,530.0,0.2,17.0
1233,26215200.0,303.41666666667004,-0.00010905206292624,0.00014923564900287,-4.018358607663e-05,-4.9334440857334e-07,6.4910502422349e-07,-1.5576061565014998e-07,-16.517428740345,40.100893854837,-1.2358969596195,0.84282407407407,50400.0,1.0,1100.0,530.0,0.2,17.0
1237,26301600.0,304.41666666667004,-0.00010927965757184,0.00014955528189723998,-4.0275624325407e-05,-4.9589673887406e-07,6.5262398953378e-07,-1.5672725065971998e-07,-16.517057367725002,40.144884144767,-1.2337780665754,0.84560185185185,50400.0,1.0,1100.0,530.0,0.2,17.0
1241,26388000.0,305.41666666667004,-0.00010950696195347,0.00014987452797272,-4.0367566019254e-05,-4.9845506996977e-07,6.5615208526359e-07,-1.5769701529382e-07,-16.516678489253,40.187962895630996,-1.2319281957181,0.84837962962963,50400.0,1.0,1100.0,530.0,0.2,17.0
1245,26474400.0,306.41666666667004,-0.00010973400295464001,0.00015019341532528002,-4.045941237064e-05,-5.0101948409841e-07,6.5968944518204e-07,-1.5866996108364e-07,-16.51630199424,40.230792979068,-1.2300906856422,0.85115740740741,50400.0,1.0,1100.0,530.0,0.2,17.0
1249,26560800.0,307.41666666667004,-0.00010996076741616001,0.000150511933317,-4.0551165900842e-05,-5.0358991017943e-07,6.6323598410923e-07,-1.5964607392979998e-07,-16.515951719668,40.274331699755,-1.228078748222,0.85393518518519,50400.0,1.0,1100.0,530.0,0.2,17.0
1253,26647200.0,308.41666666667004,-0.00011018727517507,0.00015083010026256002,-4.0642825087485e-05,-5.0616637180876e-07,6.6679174445761e-07,-1.6062537264886e-07,-16.515590245915,40.315762881367995,-1.2265116923349,0.85671296296296,50400.0,1.0,1100.0,530.0,0.2,17.0
1257,26733600.0,309.41666666667004,-0.00011041350294843,0.00015114789362662,-4.0734390678184004e-05,-5.0874895954336e-07,6.7035680698531e-07,-1.6160784744195e-07,-16.51524900239,40.357784933994004,-1.2247240096266,0.8594907407407401,50400.0,1.0,1100.0,530.0,0.2,17.0
1261,26820000.0,310.41666666667004,-0.00011063949904445,0.00015146536227945,-4.0825863234991995e-05,-5.1133767527476e-07,6.7393123778143e-07,-1.6259356250667e-07,-16.514946085168,40.404077567711,-1.2219831318137,0.86226851851852,50400.0,1.0,1100.0,530.0,0.2,17.0
1265,26906400.0,311.41666666667004,-0.00011086517294433,0.00015178239405358,-4.0917221109242e-05,-5.1393142013944e-07,6.775134624788e-07,-1.6358204233936e-07,-16.514496376146,40.448161568188,-1.2197182479993,0.8650462962963,50400.0,1.0,1100.0,530.0,0.2,17.0
1269,26992800.0,312.41666666667004,-0.00011109062357893001,0.00015209910662998001,-4.1008483051041e-05,-5.1653113044724e-07,6.8110484127959e-07,-1.6457371083234998e-07,-16.514166407397,40.491066333272,-1.2177303015895,0.86782407407407,50400.0,1.0,1100.0,530.0,0.2,17.0
1273,27079200.0,313.41666666667004,-0.0001113157969909,0.00015241544714123,-4.1099650150321994e-05,-5.1913667389516e-07,6.8470514038572e-07,-1.6556846649057e-07,-16.513745404001,40.534977358115,-1.2154302617058,0.87060185185185,50400.0,1.0,1100.0,530.0,0.2,17.0
1277,27165600.0,314.41666666667004,-0.00011154072109171999,0.00015273145256272,-4.1190731470997e-05,-5.2174858098041e-07,6.8831510058072e-07,-1.6656651960029997e-07,-16.513380037214,40.578312457233,-1.2133507824725,0.87337962962963,50400.0,1.0,1100.0,530.0,0.2,17.0
1281,27252000.0,315.41666666667004,-0.00011176540740018001,0.00015304713180153002,-4.1281724401347e-05,-5.2436669145772e-07,6.9193451597623e-07,-1.675678245185e-07,-16.512986158809,40.621558961465,-1.2112087826531,0.87615740740741,50400.0,1.0,1100.0,530.0,0.2,17.0
1285,27338400.0,316.41666666667004,-0.0001119898310993,0.0001533624545129,-4.1372623413603004e-05,-5.2699068902301e-07,6.9556294385362e-07,-1.6857225483062e-07,-16.512663419535,40.662480975371,-1.2096561490064,0.87893518518519,50400.0,1.0,1100.0,530.0,0.2,17.0
1289,27424800.0,317.41666666667004,-0.00011221401195453001,0.00015367744043423,-4.1463428479701e-05,-5.2962066169535e-07,6.9920051700934e-07,-1.6957985531399e-07,-16.512331724394,40.707249384644,-1.2072301252614,0.88171296296296,50400.0,1.0,1100.0,530.0,0.2,17.0
1293,27511200.0,318.41666666667004,-0.0001124379534627,0.0001539920968559,-4.1554143393194e-05,-5.322567045058899e-07,7.0284736855486e-07,-1.7059066404897e-07,-16.511912472902,40.749351480118996,-1.2053354896933,0.88449074074074,50400.0,1.0,1100.0,530.0,0.2,17.0
1297,27597600.0,319.41666666667004,-0.00011266164010018999,0.00015430640547292,-4.1644765372728e-05,-5.3489868562481e-07,7.0650330425809e-07,-1.7160461863328e-07,-16.511559734022,40.791485059619,-1.2033975631645,0.88726851851852,50400.0,1.0,1100.0,530.0,0.2,17.0
1301,27684000.0,320.41666666667004,-0.00011288506098043,0.00015462036099865,-4.1735300018227004e-05,-5.3754674924918e-07,7.1016853142641e-07,-1.7262178217723e-07,-16.511217002393,40.837250003411,-1.2007648168973,0.8900462962962999,50400.0,1.0,1100.0,530.0,0.2,17.0
1305,27770400.0,321.41666666667004,-0.00011310823062376001,0.00015493396479463,-4.1825734170875e-05,-5.4020034409606e-07,7.1384228401649e-07,-1.7364193992042e-07,-16.510741774989,40.878869013881,-1.1989462520703,0.89282407407407,50400.0,1.0,1100.0,530.0,0.2,17.0
1309,27856800.0,322.41666666667004,-0.00011333116691568999,0.00015524724813506999,-4.1916081219387e-05,-5.4286012916319e-07,7.1752548790161e-07,-1.7466535873841e-07,-16.51043053772,40.92170566096,-1.1968920413635,0.89560185185185,50400.0,1.0,1100.0,530.0,0.2,17.0
1313,27943200.0,323.41666666667004,-0.0001135538470074,0.00015556018545511002,-4.2006338447702004e-05,-5.4552586783348e-07,7.212178035269301e-07,-1.7569193569345e-07,-16.510117928767,40.965160851284,-1.1946867323022,0.89837962962963,50400.0,1.0,1100.0,530.0,0.2,17.0
1317,28029600.0,324.41666666667004,-0.00011377628631023,0.00015587279298798998,-4.2096506677752e-05,-5.4819759599753e-07,7.2491928673481e-07,-1.7672169073728e-07,-16.50975460799,41.008837217449,-1.1924372768501001,0.90115740740741,50400.0,1.0,1100.0,530.0,0.2,17.0
1321,28116000.0,325.41666666667004,-0.00011399847227013999,0.00015618505322808,-4.2186580957940005e-05,-5.508751034985699e-07,7.286296382895e-07,-1.7775453479092e-07,-16.509473988939,41.050281360362,-1.1906544438962,0.90393518518519,50400.0,1.0,1100.0,530.0,0.2,17.0
1325,28202400.0,326.41666666667004,-0.00011422041894135,0.00015649698610591,-4.2276567164564005e-05,-5.5355867672488e-07,7.3234926846079e-07,-1.787905917359e-07,-16.509026246086,41.092591821378,-1.1886631503258,0.90671296296296,50400.0,1.0,1100.0,530.0,0.2,17.0
1329,28288800.0,327.41666666667004,-0.0001144421269096,0.00015680859199286,-4.2366465083265994e-05,-5.5624818249793e-07,7.3607799079371e-07,-1.7982980829578e-07,-16.50866635133,41.139660781378005,-1.1855793434492,0.90949074074074,50400.0,1.0,1100.0,530.0,0.2,17.0
1333,28375200.0,328.41666666667004,-0.00011466359659156999,0.00015711987619663,-4.2456279605063e-05,-5.5894377869816e-07,7.398160418829299e-07,-1.8087226318477e-07,-16.50829935934,41.181361022073,-1.1837204138405,0.91226851851852,50400.0,1.0,1100.0,530.0,0.2,17.0
1337,28461600.0,329.41666666667004,-0.00011488480854378,0.00015743081780143,-4.2546009257655e-05,-5.616454931112501e-07,7.4356341848181e-07,-1.8191792537056e-07,-16.507967536108,41.224622615493004,-1.1815577712637,0.9150462962963,50400.0,1.0,1100.0,530.0,0.2,17.0
1341,28548000.0,330.41666666667004,-0.0001151058038202,0.00015774145055306998,-4.2635646732862e-05,-5.6435305640025e-07,7.473197852087401e-07,-1.8296672880849e-07,-16.507602270981,41.266031956839,-1.1798341518894,0.91782407407407,50400.0,1.0,1100.0,530.0,0.2,17.0
1345,28634400.0,331.41666666667004,-0.0001153265576976,0.00015805175971775,-4.2725202020148e-05,-5.670667184263699e-07,7.5108548676011e-07,-1.8401876833374e-07,-16.507227151570998,41.313188737162,-1.1765781055548001,0.92060185185185,50400.0,1.0,1100.0,530.0,0.2,17.0
1349,28720800.0,332.41666666667004,-0.0001155470603719,0.00015836171684433,-4.2814656472427004e-05,-5.6978566229012e-07,7.5485939453577e-07,-1.8507373224565e-07,-16.506849929727,41.355653556756,-1.1744902587674,0.92337962962963,50400.0,1.0,1100.0,530.0,0.2,17.0
1353,28807200.0,333.41666666667004,-0.00011576730186421001,0.00015867132123784,-4.2904019373626e-05,-5.7251031838233e-07,7.586420755848001e-07,-1.8613175720246e-07,-16.506511421793,41.396753728784,-1.1727516000391,0.92615740740741,50400.0,1.0,1100.0,530.0,0.2,17.0
1357,28893600.0,334.41666666667004,-0.00011598735322846,0.00015898065608032,-4.2993302851856e-05,-5.7524130512277e-07,7.624344342641e-07,-1.8719312914132e-07,-16.506178867256,41.436833450938,-1.171257954294,0.92893518518519,50400.0,1.0,1100.0,530.0,0.2,17.0
1361,28980000.0,335.41666666667004,-0.00011620719953079,0.00015928971044893998,-4.3082510918145e-05,-5.7797889308485e-07,7.6623682441747e-07,-1.8825793133263e-07,-16.50572896052,41.484894243388,-1.1679521604731,0.93171296296296,50400.0,1.0,1100.0,530.0,0.2,17.0
1365,29066400.0,336.41666666667004,-0.00011642676522488,0.00015959838779013998,-4.3171622565263e-05,-5.8072180067585e-07,7.7004744885409e-07,-1.8932564817823998e-07,-16.505373927662,41.52697726125,-1.1659453283687,0.93449074074074,50400.0,1.0,1100.0,530.0,0.2,17.0
1369,29152800.0,337.41666666667004,-0.0001166460997262,0.00015990674973937,-4.3260650013171004e-05,-5.834707222911801e-07,7.7386729436435e-07,-1.9039657207317e-07,-16.504973768046998,41.570510838239,-1.1635121501049,0.93726851851852,50400.0,1.0,1100.0,530.0,0.2,17.0
1373,29239200.0,338.41666666667004,-0.00011686522176795,0.00016021481267994,-4.3349590911991e-05,-5.86225526935e-07,7.776961976173999e-07,-1.914706706824e-07,-16.504663885939998,41.612300801008,-1.1614973671061002,0.9400462962963,50400.0,1.0,1100.0,530.0,0.2,17.0
1377,29325600.0,339.41666666667004,-0.0001170841186896,0.00016052256578596,-4.3438447096358e-05,-5.8898631589191e-07,7.8153427988235e-07,-1.9254796399044e-07,-16.504335052372998,41.653941149771,-1.1596148596031002,0.94282407407407,50400.0,1.0,1100.0,530.0,0.2,17.0
1381,29412000.0,340.41666666667004,-0.00011730278798728001,0.00016083000710557,-4.3527219118297e-05,-5.9175306668884e-07,7.853815152619899e-07,-1.9362844857314e-07,-16.503975545093,41.695783342705,-1.157579947832,0.94560185185185,50400.0,1.0,1100.0,530.0,0.2,17.0
1385,29498400.0,341.41666666667004,-0.00011752124048945,0.00016113715875513,-4.3615918265684995e-05,-5.945261099256601e-07,7.892383645975899e-07,-1.9471225467193999e-07,-16.503605873482,41.736278862956,-1.155963650263,0.94837962962963,50400.0,1.0,1100.0,530.0,0.2,17.0
1389,29584800.0,342.41666666667004,-0.00011773949811138999,0.00016144402917791001,-4.3704531066521e-05,-5.973053302272101e-07,7.9310467070386e-07,-1.9579934047665e-07,-16.503164095504,41.776791669818,-1.1541807656123,0.95115740740741,50400.0,1.0,1100.0,530.0,0.2,17.0
1393,29671200.0,343.41666666667004,-0.00011795755190175,0.00016175061540599,-4.3793063504243e-05,-6.0009052886532e-07,7.9698018925479e-07,-1.9688966038947e-07,-16.502956538274,41.819421412252005,-1.1520298996795,0.9539351851851899,50400.0,1.0,1100.0,530.0,0.2,17.0
1397,29757600.0,344.41666666667,-0.00011817535656925,0.00016205686907081002,-4.3881512501553995e-05,-6.0288166530621e-07,8.008647995646599e-07,-1.9798313425845002e-07,-16.502593916079,41.861607665856,-1.1499170793332,0.95671296296296,50400.0,1.0,1100.0,530.0,0.2,17.0
1401,29844000.0,345.41666666667,-0.00011839294410336001,0.00016236282407112,-4.3969879967766e-05,-6.0567877947969e-07,8.0475859692898e-07,-1.9907981744929e-07,-16.502328700000998,41.900239293776,-1.1484736377476998,0.95949074074074,50400.0,1.0,1100.0,530.0,0.2,17.0
1405,29930400.0,346.41666666667,-0.00011861034743743999,0.00016266850537805,-4.4058157940602e-05,-6.0848168980379e-07,8.086613555528e-07,-2.0017966574902e-07,-16.501909912159,41.943209791381996,-1.1462287452575,0.96226851851852,50400.0,1.0,1100.0,530.0,0.2,17.0
1409,30016800.0,347.41666666667,-0.00011882753769586001,0.00016297389635802,-4.4146358662165004e-05,-6.1129076481125e-07,8.125735637185e-07,-2.0128279890725e-07,-16.501579278335,41.98532284903,-1.1439873594396002,0.9650462962963,50400.0,1.0,1100.0,530.0,0.2,17.0
1413,30103200.0,348.41666666667,-0.0001190445168184,0.00016327900060072,-4.4234483782315e-05,-6.1410606949651e-07,8.164953048328e-07,-2.0238923533629e-07,-16.501227275716,42.026695194805,-1.1420278724669,0.96782407407407,50400.0,1.0,1100.0,530.0,0.2,17.0
1417,30189600.0,349.41666666667,-0.00011926127643543999,0.00016358380440599,-4.4322527970546e-05,-6.1692736635024e-07,8.2042624818913e-07,-2.0349888183889e-07,-16.500788132029,42.06708662642,-1.1401680891333998,0.97060185185185,50400.0,1.0,1100.0,530.0,0.2,17.0
1421,30276000.0,350.41666666667,-0.00011947783327603999,0.00016388832849183,-4.4410495215794e-05,-6.197547179612e-07,8.2436650852144e-07,-2.0461179056024002e-07,-16.500520451746,42.108494768998,-1.138151355825,0.97337962962963,50400.0,1.0,1100.0,530.0,0.2,17.0
1425,30362400.0,351.41666666667,-0.00011969418366365,0.00016419256702458998,-4.4498383360944e-05,-6.225882064989801e-07,8.2831618335427e-07,-2.0572797685529e-07,-16.500131542059,42.154105252739,-1.1350629478176,0.97615740740741,50400.0,1.0,1100.0,530.0,0.2,17.0
1429,30448800.0,352.41666666667,-0.00011991028661271999,0.00016449646599276998,-4.4586179380049e-05,-6.2542694858212e-07,8.322740390218999e-07,-2.0684709043977e-07,-16.499813399133,42.194032830123,-1.1334066881103,0.97893518518519,50400.0,1.0,1100.0,530.0,0.2,17.0
1433,30535200.0,353.41666666667,-0.00012012619673525,0.00016480009220532,-4.4673895470068e-05,-6.2827190601832e-07,8.3624141690197e-07,-2.0796951088365e-07,-16.499489331853002,42.232573540676,-1.1320583513951998,0.98171296296296,50400.0,1.0,1100.0,530.0,0.2,17.0
1437,30621600.0,354.41666666667,-0.0001203419130936,0.00016510344973945,-4.4761536645853996e-05,-6.3112299416571e-07,8.4021820352241e-07,-2.0909520935669e-07,-16.499073222506002,42.274571303956,-1.1298859458456,0.9844907407407401,50400.0,1.0,1100.0,530.0,0.2,17.0
1441,30708000.0,355.41666666667,-0.00012055742088003001,0.00016540652703271,-4.4849106152682e-05,-6.3398038104422e-07,8.4420464042812e-07,-2.102242593839e-07,-16.498763200470002,42.314638988266,-1.1281010325288001,0.98726851851852,50400.0,1.0,1100.0,530.0,0.2,17.0
1445,30794400.0,356.41666666667,-0.00012077272901835,0.00016570932142025,-4.4936592401899e-05,-6.368436169466099e-07,8.4820010187046e-07,-2.1135648492385e-07,-16.498551147865,42.356310846273,-1.126055779501,0.9900462962963,50400.0,1.0,1100.0,530.0,0.2,17.0
1449,30880800.0,357.41666666667,-0.00012098784121236001,0.00016601184180229,-4.5024000589927e-05,-6.3971286372173e-07,8.522048068469301e-07,-2.1249194312520002e-07,-16.49806330428,42.398813920335996,-1.1237290696128999,0.99282407407407,50400.0,1.0,1100.0,530.0,0.2,17.0
1453,30967200.0,358.41666666667,-0.00012120273943443998,0.00016631407190806,-4.5111332473615996e-05,-6.4258806136169e-07,8.5621868854509e-07,-2.1363062718339998e-07,-16.497734696965,42.438773117858,-1.1220292080361,0.99560185185185,50400.0,1.0,1100.0,530.0,0.2,17.0
1457,31053600.0,359.41666666667,-0.00012141744764385,0.00016661603345771998,-4.5198585813875e-05,-6.454693602e-07,8.602419368509301e-07,-2.1477257665093003e-07,-16.4973392278,42.481381376831,-1.1195676919174,0.99837962962963,50400.0,1.0,1100.0,530.0,0.2,17.0
1461,31140000.0,360.41666666667,-0.00012163193874352,0.00016691769842294,-4.5285759679419e-05,-6.4835646320678e-07,8.642741521693e-07,-2.1591768896251998e-07,-16.497022312784,42.523253985848996,-1.1174227596825002,1.0011574074074001,50400.0,1.0,1100.0,530.0,0.2,17.0
1465,31226400.0,361.41666666667,-0.00012184625296868,0.00016721911547778998,-4.5372862509106e-05,-6.5124999599901e-07,8.683162130892099e-07,-2.170662170902e-07,-16.496714913756,42.564045507094,-1.1155714267803,1.0039351851852,50400.0,1.0,1100.0,530.0,0.2,17.0
1468,31248000.0,361.66666666667,-0.00012184625296868,0.00016721911547778998,-4.5372862509106e-05,-6.5124999599901e-07,8.683162130892099e-07,-2.170662170902e-07,0.39374205062478007,63.541374312561,40.730823393966,1.0046296296296,90000.0,3.0,25.0,25.0,0.1,0.1
1472,31348800.0,362.83333333333,-0.00012186110592252,0.00016723702088871002,-4.5375914966194e-05,-6.5143803871893e-07,8.6857575669668e-07,-2.1713771797775e-07,-16.499655214759,42.51896770857,-1.1328678725903998,1.0078703703704,50400.0,1.0,1100.0,530.0,0.2,17.0
1476,31435200.0,363.83333333333,-0.00012207493630081,0.00016753777211512,-4.5462835814307e-05,-6.5433246256838e-07,8.726199939663999e-07,-2.1828753139801998e-07,-16.496309002783,42.610239507891,-1.1127079015128998,1.0106481481481,50400.0,1.0,1100.0,530.0,0.2,17.0
1480,31521600.0,364.83333333333,-0.0001222888205698,0.00016783859712408001,-4.5549776554275e-05,-6.5723792567164e-07,8.766804893033701e-07,-2.1944256363172002e-07,-16.495964462794,42.6513788177,-1.1105235688974,1.0134259259259,50400.0,1.0,1100.0,530.0,0.2,17.0
1484,31608000.0,365.83333333333,-0.0001225025006685,0.00016813913150972,-4.5636630841227e-05,-6.6014875848895e-07,8.807493757803699e-07,-2.2060061729141998e-07,-16.495651153164,42.691054649584,-1.1088017745396002,1.0162037037037,50400.0,1.0,1100.0,530.0,0.2,17.0
1488,31694400.0,366.83333333333,-0.00012271598568686,0.00016843940202555,-4.5723416338687e-05,-6.6306600190948e-07,8.848280579126e-07,-2.2176205600311998e-07,-16.495280429113,42.73301464336,-1.1065877670028998,1.0189814814815,50400.0,1.0,1100.0,530.0,0.2,17.0
1492,31780800.0,367.83333333333,-0.00012292925935868001,0.00016873938167875,-4.5810122320063e-05,-6.6598900002074e-07,8.8891563492348e-07,-2.2292663490274e-07,-16.494830279295,42.773114941214,-1.104631844134,1.0217592592593001,50400.0,1.0,1100.0,530.0,0.2,17.0
1496,31867200.0,368.83333333333,-0.00012314234636328,0.00016903910265723,-4.5896756293952e-05,-6.689181135235699e-07,8.930126285610901e-07,-2.2409451503751997e-07,-16.494586857896,42.813055870504996,-1.1027367560436,1.0245370370370002,50400.0,1.0,1100.0,530.0,0.2,17.0
1500,31953600.0,369.83333333333,-0.0001233552513367,0.00016933856272879,-4.5983311392081e-05,-6.7185312523318e-07,8.9711873921448e-07,-2.2526561398130998e-07,-16.494243873109,42.854292625114,-1.1006026497348,1.0273148148148,50400.0,1.0,1100.0,530.0,0.2,17.0
1504,32040000.0,370.83333333333,-0.0001235679674367,0.00016963775713325,-4.6069789696546005e-05,-6.7479414429653e-07,9.0123411024934e-07,-2.2643996595282002e-07,-16.493894227409,42.892346956388,-1.0992044251315,1.0300925925925999,50400.0,1.0,1100.0,530.0,0.2,17.0
1508,32126400.0,371.83333333333,-0.00012378049160643,0.00016993669647564,-4.615620486921e-05,-6.777414818670001e-07,9.0535918119403e-07,-2.2761769932702998e-07,-16.493583491467,42.933721737240006,-1.0970647073183,1.0328703703703999,50400.0,1.0,1100.0,530.0,0.2,17.0
1512,32212800.0,372.83333333333,-0.00012399285777276,0.00017023540807355,-4.6242550300787e-05,-6.8069531186809e-07,9.0949420426276e-07,-2.2879889239467001e-07,-16.493245704288,42.974936895419,-1.0949044694103,1.0356481481481,50400.0,1.0,1100.0,530.0,0.2,17.0
1516,32299200.0,373.83333333333,-0.00012420504452188998,0.00017053386177326,-4.6328817251364e-05,-6.8365493732409e-07,9.1363820524704e-07,-2.2998326792295e-07,-16.492926823745,43.013622579947004,-1.0932290771111999,1.0384259259259,50400.0,1.0,1100.0,530.0,0.2,17.0
1520,32385600.0,374.83333333333,-0.00012441699467425,0.00017083198846728,-4.6414993793033e-05,-6.8661973928183e-07,9.177902984918399e-07,-2.3117055921001e-07,-16.492607815953,43.05690572011599,-1.0906528997373,1.0412037037037,50400.0,1.0,1100.0,530.0,0.2,17.0
1524,32472000.0,375.83333333333,-0.00012462878929822,0.0001711298922797,-4.650110298148e-05,-6.8959092380246e-07,9.2195219276954e-07,-2.3236126896707e-07,-16.492207917469,43.097472863385,-1.0885597701812,1.0439814814815,50400.0,1.0,1100.0,530.0,0.2,17.0
1528,32558400.0,376.83333333333,-0.00012484038725863998,0.00017142752741041,-4.6587140151766e-05,-6.9256805235839e-07,9.2612326481952e-07,-2.3355521246113e-07,-16.491885639804,43.134821320243,-1.0872882171333,1.0467592592593,50400.0,1.0,1100.0,530.0,0.2,17.0
1532,32644800.0,377.83333333333,-0.00012505181428361001,0.00017172491548823998,-4.667310120463e-05,-6.9555117488218e-07,9.303035990621099e-07,-2.3475242417993e-07,-16.491545820711,43.177432309753996,-1.0848192739589,1.049537037037,50400.0,1.0,1100.0,530.0,0.2,17.0
1536,32731200.0,378.83333333333,-0.0001252630369079,0.00017202203558203,-4.6758998674128e-05,-6.9854047327554e-07,9.344934355693701e-07,-2.3595296229383e-07,-16.491194122979,43.217464425628,-1.0829647856983,1.0523148148148,50400.0,1.0,1100.0,530.0,0.2,17.0
1540,32817600.0,379.83333333333,-0.00012547410611547,0.00017231893719066,-4.6844831075191996e-05,-7.015363576178899e-07,9.3869335565182e-07,-2.3715699803393003e-07,-16.490815936709,43.256683962524995,-1.0813415552646,1.0550925925926,50400.0,1.0,1100.0,530.0,0.2,17.0
1544,32904000.0,380.83333333333,-0.00012568501684637,0.00017261560741286,-4.6930590566489e-05,-7.045385416223e-07,9.4290296023097e-07,-2.3836441860867e-07,-16.490469873612,43.299523694981005,-1.0788134109614,1.0578703703704,50400.0,1.0,1100.0,530.0,0.2,17.0
1548,32990400.0,381.83333333333,-0.00012589569626691,0.0001729119648585,-4.7016268591585e-05,-7.075458628551999e-07,9.4712062086539e-07,-2.3957475801018e-07,-16.490177654972,43.337089132071,-1.0773925736204,1.0606481481480998,50400.0,1.0,1100.0,530.0,0.2,17.0
1552,33076800.0,382.83333333333,-0.00012610626989642,0.00017320815378188,-4.7101883885456e-05,-7.1056007664371e-07,9.5134882369926e-07,-2.4078874705556e-07,-16.489775907513,43.374670214643004,-1.0757665252303,1.0634259259259,50400.0,1.0,1100.0,530.0,0.2,17.0
1556,33163200.0,383.83333333333,-0.00012631665749482,0.00017350408281966,-4.7187425324835e-05,-7.1358010319373e-07,9.5558603465063e-07,-2.420059314569e-07,-16.489482088312,43.418303974507,-1.0731830307948,1.0662037037037,50400.0,1.0,1100.0,530.0,0.2,17.0
1560,33249600.0,384.83333333333,-0.00012652688520019,0.00017379978071691002,-4.7272895516725e-05,-7.1660642166392e-07,9.598329333233102e-07,-2.4322651165939004e-07,-16.489152750952,43.460304210202,-1.0706126030938001,1.0689814814815,50400.0,1.0,1100.0,530.0,0.2,17.0
1564,33336000.0,385.83333333333,-0.00012673686710432,0.0001740951538437,-4.7358286739378995e-05,-7.196377086023301e-07,9.640876489351999e-07,-2.4444994033287e-07,-16.488788972161,43.500033596642,-1.0686229943854,1.0717592592593002,50400.0,1.0,1100.0,530.0,0.2,17.0
1568,33422400.0,386.83333333333,-0.00012694667777135,0.00017439028132775,-4.7443603556397995e-05,-7.2267511318517e-07,9.6835179603696e-07,-2.4567668285179e-07,-16.488498177552,43.539897368397,-1.0666854221200002,1.074537037037,50400.0,1.0,1100.0,530.0,0.2,17.0
1572,33508800.0,387.83333333333,-0.00012715631177285,0.00017468516712183002,-4.7528855348978e-05,-7.257185730455301e-07,9.7262530811201e-07,-2.4690673506648e-07,-16.488224806528002,43.579582074802,-1.0648201829148,1.0773148148148,50400.0,1.0,1100.0,530.0,0.2,17.0
1576,33595200.0,388.83333333333,-0.00012736578453083,0.00017497982244348,-4.7614037912653006e-05,-7.2876820609328e-07,9.7690834783487e-07,-2.4814014174158e-07,-16.487781706326,43.621423258006,-1.0623438094403,1.0800925925926,50400.0,1.0,1100.0,530.0,0.2,17.0
1580,33681600.0,389.83333333333,-0.0001275750840914,0.00017527422452245,-4.7699140431053e-05,-7.318236045105799e-07,9.812003257407801e-07,-2.493767212302e-07,-16.487485236716,43.658266542601005,-1.061027556412,1.0828703703704,50400.0,1.0,1100.0,530.0,0.2,17.0
1584,33768000.0,390.83333333333,-0.00012778422555535,0.00017556841059501,-4.7784185039668e-05,-7.348855332498299e-07,9.855023405889799e-07,-2.5061680733915e-07,-16.487131978452002,43.696223141634,-1.0596907373539002,1.0856481481481,50400.0,1.0,1100.0,530.0,0.2,17.0
1588,33854400.0,391.83333333333,-0.00012799319974069,0.00017586236451944,-4.7869164778748e-05,-7.379538026480099e-07,9.8981409977642e-07,-2.5186029712841e-07,-16.486993107981,43.738051083429,-1.057248519877,1.0884259259259002,50400.0,1.0,1100.0,530.0,0.2,17.0
1592,33940800.0,392.83333333333,-0.00012820203297678,0.00017615610538045,-4.7954072403674e-05,-7.410280114291e-07,9.9413508404585e-07,-2.5310707261676004e-07,-16.486486477868,43.775667717494,-1.0558357967201,1.0912037037037,50400.0,1.0,1100.0,530.0,0.2,17.0
1596,34027200.0,393.83333333333,-0.00012841067385905,0.00017644958831553002,-4.8038914456476e-05,-7.4410833862171e-07,9.9846550748817e-07,-2.5435716886645997e-07,-16.486240371551002,43.81645708798101,-1.053590763818,1.0939814814814999,50400.0,1.0,1100.0,530.0,0.2,17.0
1600,34113600.0,394.83333333333,-0.0001286191553085,0.00017674284467376,-4.8123689365262e-05,-7.4719467833778e-07,1.0028052482002e-06,-2.5561056986243e-07,-16.485821570957,43.855241601048,-1.0518355741384,1.0967592592593,50400.0,1.0,1100.0,530.0,0.2,17.0
1604,34200000.0,395.83333333333,-0.00012882747266736,0.0001770358664389,-4.820839377154e-05,-7.5028725956873e-07,1.0071545965288e-06,-2.568673369601e-07,-16.485683508655,43.896714533589,-1.0493571287064,1.0995370370370001,50400.0,1.0,1100.0,530.0,0.2,17.0
1608,34286400.0,396.83333333333,-0.00012903562229781002,0.00017732864872875,-4.8293026430938e-05,-7.5338544419436e-07,1.0115127033078001e-06,-2.5812725911344e-07,-16.485233653666,43.933741522901,-1.0479086701884,1.1023148148148,50400.0,1.0,1100.0,530.0,0.2,17.0
1612,34372800.0,397.83333333333,-0.00012924362196094,0.00017762122152669,-4.8377599565746004e-05,-7.5649014355585e-07,1.0158808230846e-06,-2.5939067952873996e-07,-16.484769111907,43.977667115483996,-1.0448082884546,1.1050925925926,50400.0,1.0,1100.0,530.0,0.2,17.0
1616,34459200.0,398.83333333333,-0.00012945141705266,0.00017791350820604,-4.8462091153377e-05,-7.5960004112287e-07,1.0202571060077e-06,-2.6065706488481003e-07,-16.484465845545,44.013450450577004,-1.0438337109019,1.1078703703704,50400.0,1.0,1100.0,530.0,0.2,17.0
1620,34545600.0,399.83333333333,-0.00012965907749614,0.00017820560251956998,-4.8546525023427e-05,-7.6271691753708e-07,1.0246440468407e-06,-2.6192712930360004e-07,-16.484207427023,44.051953748294004,-1.0419619531576,1.1106481481481,50400.0,1.0,1100.0,530.0,0.2,17.0
1624,34632000.0,400.83333333333,-0.0001298666181119,0.00017849751804776,-4.8630899935854e-05,-7.658403866093601e-07,1.0290411315554002e-06,-2.6320074494605997e-07,-16.483847365558,44.090557395909,-1.0401571161579999,1.1134259259258998,50400.0,1.0,1100.0,530.0,0.2,17.0
1628,34718400.0,401.83333333333,-0.00013007398343507,0.0001787891884647,-4.8715205029631e-05,-7.6896954733838e-07,1.0334470908236e-06,-2.6447754348522e-07,-16.483484324861,44.130115735544,-1.0381290374263001,1.1162037037037,50400.0,1.0,1100.0,530.0,0.2,17.0
1632,34804800.0,402.83333333333,-0.00013028115723146,0.00017908060197556,-4.87994447441e-05,-7.7210464449858e-07,1.0378622490723e-06,-2.6575760457374e-07,-16.483187126515,44.169827301954,-1.0361097454784,1.1189814814815,50400.0,1.0,1100.0,530.0,0.2,17.0
1636,34891200.0,403.83333333333,-0.00013048817512774,0.00017937179559827,-4.8883620470529996e-05,-7.752459759532099e-07,1.0422870335789e-06,-2.6704105762572e-07,-16.482876298896,44.210434679637004,-1.0338181517559002,1.1217592592593,50400.0,1.0,1100.0,530.0,0.2,17.0
1640,34977600.0,404.83333333333,-0.00013069505336083998,0.00017966277307685,-4.8967719716009006e-05,-7.783930561651101e-07,1.0467207816868999e-06,-2.6832772552182e-07,-16.48252750305,44.248523204593,-1.0321614662058,1.124537037037,50400.0,1.0,1100.0,530.0,0.2,17.0
1644,35064000.0,405.83333333333,-0.00013090177537287,0.00017995353280665,-4.9051757433778995e-05,-7.8154641832312e-07,1.0511642284190001e-06,-2.6961781009587e-07,-16.482224062045,44.287467194197,-1.0302603075024999,1.1273148148148,50400.0,1.0,1100.0,530.0,0.2,17.0
1648,35150400.0,406.83333333333,-0.00013110831056126998,0.00018024404503726,-4.913573447599e-05,-7.847058839962e-07,1.0556171182995e-06,-2.7091123430331997e-07,-16.481853832332998,44.324530378743,-1.0287755993313001,1.1300925925926002,50400.0,1.0,1100.0,530.0,0.2,17.0
1652,35236800.0,407.83333333333,-0.00013131471701633001,0.00018053435377765,-4.9219636761314e-05,-7.8787110868332e-07,1.0600789859751e-06,-2.7220787729175e-07,-16.481488445644,44.363397525371,-1.0268750214042,1.1328703703704,50400.0,1.0,1100.0,530.0,0.2,17.0
1656,35323200.0,408.83333333333,-0.00013152095268572,0.00018082443132288,-4.9303478637159006e-05,-7.9104273789454e-07,1.0645507082923001e-06,-2.7350797039777e-07,-16.481214451903,44.403826147137,-1.0246475183678,1.1356481481481,50400.0,1.0,1100.0,530.0,0.2,17.0
1660,35409600.0,409.83333333333,-0.00013172706347191001,0.00018111432777085,-4.938726429894e-05,-7.942208837941201e-07,1.0690324856701e-06,-2.7481160187594e-07,-16.480911403639,44.443790844809,-1.022500684593,1.1384259259259,50400.0,1.0,1100.0,530.0,0.2,17.0
1664,35496000.0,410.83333333333,-0.00013193300674715,0.00018140398383773002,-4.9470977090573e-05,-7.9740463077821e-07,1.0735230136457e-06,-2.7611838286749003e-07,-16.480535216205002,44.482282425348,-1.0206605478453,1.1412037037037,50400.0,1.0,1100.0,530.0,0.2,17.0
1668,35582400.0,411.83333333333,-0.00013213882256107,0.00018169344361586,-4.9554621054785e-05,-8.0059445665978e-07,1.0780229745211e-06,-2.7742851786131e-07,-16.480244408433002,44.522610146689,-1.0184766815333999,1.1439814814815,50400.0,1.0,1100.0,530.0,0.2,17.0
1672,35668800.0,412.83333333333,-0.00013234446229445,0.00018198266371583,-4.9638201421379e-05,-8.0379011985563e-07,1.0825320240315e-06,-2.7874190417588e-07,-16.479880903773,44.562808601041,-1.0162183289513,1.1467592592593001,50400.0,1.0,1100.0,530.0,0.2,17.0
1676,35755200.0,413.83333333333,-0.00013254991125406999,0.00018227161971178999,-4.9721708457719e-05,-8.0699124318042e-07,1.0870496169591e-06,-2.8005837377867e-07,-16.47958868883,44.59553957789699,-1.0156601030568,1.1495370370370002,50400.0,1.0,1100.0,530.0,0.2,17.0
1680,35841600.0,414.83333333333,-0.0001327552450843,0.00018256040820041,-4.9805163116112e-05,-8.1019938450728e-07,1.0915779503642999e-06,-2.8137856585705e-07,-16.479238567184,44.639207755773,-1.0125576113002,1.1523148148148,50400.0,1.0,1100.0,530.0,0.2,17.0
1684,35928000.0,415.83333333333,-0.00013296041440605,0.00018284896025233,-4.9888545846272e-05,-8.134130366239701e-07,1.0961149277634001e-06,-2.8270189113946e-07,-16.478965360758,44.677848510286,-1.0107171659439,1.1550925925926,50400.0,1.0,1100.0,530.0,0.2,17.0
1688,36014400.0,416.83333333333,-0.00013316546319973,0.00018313732775978,-4.9971864560045e-05,-8.1663276700779e-07,1.1006613601089e-06,-2.8402859310114004e-07,-16.478548108404,44.719444890843,-1.0083194844083,1.1578703703703999,50400.0,1.0,1100.0,530.0,0.2,17.0
1692,36100800.0,417.83333333333,-0.00013337027730414,0.00018342538989288,-5.0055112588741e-05,-8.1985787932016e-07,1.1052161984862e-06,-2.8535831916603e-07,-16.478292766318,44.75261137495,-1.0073428453789,1.1606481481481001,50400.0,1.0,1100.0,530.0,0.2,17.0
1696,36187200.0,418.83333333333,-0.00013357503040346,0.0001837133377351,-5.0138307331644e-05,-8.230901567168399e-07,1.109782029003e-06,-2.8669187228614996e-07,-16.477907340478,44.79246194327,-1.0050845960581,1.1634259259258999,50400.0,1.0,1100.0,530.0,0.2,17.0
1700,36273600.0,419.83333333333,-0.00013377958513132,0.00018400101750066,-5.0221432369344e-05,-8.2632776947404e-07,1.1143562370177e-06,-2.8802846754366e-07,-16.477659609898,44.829929325399,-1.0034649209511,1.1662037037037,50400.0,1.0,1100.0,530.0,0.2,17.0
1704,36360000.0,420.83333333333,-0.00013398399800593,0.00018428850004665,-5.0304502040719e-05,-8.2957191209874e-07,1.1189405138858e-06,-2.8936860178704e-07,-16.477298501363002,44.867503213195,-1.0018850537066,1.1689814814815,50400.0,1.0,1100.0,530.0,0.2,17.0
1708,36446400.0,421.83333333333,-0.00013418829890134,0.00018457581204763,-5.0387513146287e-05,-8.3282254253502e-07,1.1235348050083999e-06,-2.9071226247336e-07,-16.477025783379997,44.905845253781,-1.0000529439368,1.1717592592593,50400.0,1.0,1100.0,530.0,0.2,17.0
1712,36532800.0,422.83333333333,-0.00013439247845825,0.0001848629406212,-5.0470462162949e-05,-8.3607943867628e-07,1.1281388140726e-06,-2.9205937539635e-07,-16.476682888968,44.946637667578,-0.99766892297647,1.174537037037,50400.0,1.0,1100.0,530.0,0.2,17.0
1716,36619200.0,423.83333333333,-0.00013459648428574,0.00018514983647805,-5.0553352192313e-05,-8.3934240815883e-07,1.1327522395605e-06,-2.9340983140163004e-07,-16.476327319774,44.986682165677,-0.9954829431951501,1.1773148148148,50400.0,1.0,1100.0,530.0,0.2,17.0
1720,36705600.0,424.83333333333,-0.00013480036398143998,0.00018543653656653998,-5.0636172585101e-05,-8.4261125708573e-07,1.1373748347562e-06,-2.9476357767051e-07,-16.476017996977998,45.021309548203,-0.9942190847512901,1.1800925925926002,50400.0,1.0,1100.0,530.0,0.2,17.0
1724,36792000.0,425.83333333333,-0.00013500409530863,0.00018572302898469,-5.0718933676062e-05,-8.4588616393265e-07,1.1420068580723e-06,-2.9612069413963e-07,-16.475665293737,45.06348738212,-0.99158008046698,1.1828703703704,50400.0,1.0,1100.0,530.0,0.2,17.0
1728,36878400.0,426.83333333333,-0.00013520768570463,0.00018600931951948,-5.0801633814853e-05,-8.4916735660587e-07,1.1466485970601999e-06,-2.9748124045435e-07,-16.475400066079,45.102259556159,-0.9897152056068801,1.1856481481481,50400.0,1.0,1100.0,530.0,0.2,17.0
1732,36964800.0,427.83333333333,-0.00013541113240439,0.00018629540352857,-5.0884271124181e-05,-8.5245441403926e-07,1.1512994942095e-06,-2.988450801702e-07,-16.474974854981,45.141067010200004,-0.98747217653388,1.1884259259258998,50400.0,1.0,1100.0,530.0,0.2,17.0
1736,37051200.0,428.83333333333,-0.00013561440399761002,0.00018658124586115,-5.0966841863540996e-05,-8.5574728050426e-07,1.1559594414732e-06,-3.0021216096891e-07,-16.474623377795,45.181418946195,-0.98515649865438,1.1912037037037,50400.0,1.0,1100.0,530.0,0.2,17.0
1740,37137600.0,429.83333333333,-0.00013581753292255,0.00018686687789412,-5.1049344971574e-05,-8.5904603195341e-07,1.1606285547874e-06,-3.0158252283398e-07,-16.47434378209,45.218313252908004,-0.9836605979055301,1.1939814814815,50400.0,1.0,1100.0,530.0,0.2,17.0
1744,37224000.0,430.83333333333,-0.00013602052441717,0.00018715231028961,-5.1131785872434005e-05,-8.6235063203979e-07,1.1653068195819999e-06,-3.0295618754218e-07,-16.474038890183,45.256385787808,-0.9819335735197801,1.1967592592593002,50400.0,1.0,1100.0,530.0,0.2,17.0
1748,37310400.0,431.83333333333,-0.00013622334833331002,0.00018743751192163,-5.1214163588314e-05,-8.656609694902799e-07,1.1699940442592e-06,-3.0433307476894e-07,-16.473716310921,45.294199377507,-0.9798978040508801,1.199537037037,50400.0,1.0,1100.0,530.0,0.2,17.0
1752,37396800.0,432.83333333333,-0.00013642607877273,0.00018772256696668001,-5.1296488193957e-05,-8.689779949281799e-07,1.1746915949525e-06,-3.0571360002434e-07,-16.473408807843,45.333067706555994,-0.97781674248789,1.2023148148148,50400.0,1.0,1100.0,530.0,0.2,17.0
1756,37483200.0,433.83333333333,-0.00013662865810814,0.00018800741604582,-5.1378757937682e-05,-8.723013017133002e-07,1.1793988813850001e-06,-3.0709757967164995e-07,-16.473105816028,45.368797069595004,-0.97644560588781,1.2050925925926002,50400.0,1.0,1100.0,530.0,0.2,17.0
1760,37569600.0,434.83333333333,-0.00013683111147366002,0.00018829208397544,-5.146097250178e-05,-8.756310962716801e-07,1.1841161974981e-06,-3.0848510122641e-07,-16.472783258088,45.408323317674,-0.9742311419756899,1.2078703703704,50400.0,1.0,1100.0,530.0,0.2,17.0
1764,37656000.0,435.83333333333,-0.0001370334241756,0.00018857655275133998,-5.1543128575735e-05,-8.789672036474399e-07,1.1888432931168998e-06,-3.0987608946946e-07,-16.47240802427,45.447123287527,-0.9721062195398299,1.2106481481481002,50400.0,1.0,1100.0,530.0,0.2,17.0
1768,37742400.0,436.83333333333,-0.00013723560328425,0.00018886080955052,-5.1625206266277e-05,-8.8230852426278e-07,1.1935786356203e-06,-3.1127011135751e-07,-16.472073111901,45.485668069845,-0.97015544634132,1.2134259259259,50400.0,1.0,1100.0,530.0,0.2,17.0
1772,37828800.0,437.83333333333,-0.00013743763480681,0.0001891448672452,-5.1707232438392e-05,-8.8565614882645e-07,1.1983237504219e-06,-3.1266760159540004e-07,-16.47189139586,45.520295015141,-0.9689885370541701,1.2162037037037,50400.0,1.0,1100.0,530.0,0.2,17.0
1776,37915200.0,438.83333333333,-0.00013763954619083998,0.00018942875341813,-5.1789207227287e-05,-8.8901026814319e-07,1.2030789207566003e-06,-3.1406865261345e-07,-16.471548089763,45.553530728605004,-0.96818062351423,1.2189814814814999,50400.0,1.0,1100.0,530.0,0.2,17.0
1780,38001600.0,439.83333333333,-0.00013784134271405,0.00018971245435009,-5.1871111636034996e-05,-8.923703573380501e-07,1.2078433927197e-06,-3.1547303538168004e-07,-16.471203478729,45.593411416319,-0.9658227191591701,1.2217592592593,50400.0,1.0,1100.0,530.0,0.2,17.0
1784,38088000.0,440.83333333333,-0.00013804300389585,0.00018999597472287,-5.1952970827013e-05,-8.9573716200043e-07,1.2126182309341002e-06,-3.168810689337e-07,-16.470870151577,45.633048080254,-0.9635121312590699,1.2245370370370001,50400.0,1.0,1100.0,530.0,0.2,17.0
1788,38174400.0,441.83333333333,-0.00013824454517978,0.0001902793155835,-5.2034770403721005e-05,-8.9911020918549e-07,1.2174027693849e-06,-3.1829256019942003e-07,-16.470557712355,45.670423968359,-0.96171171578779,1.2273148148148,50400.0,1.0,1100.0,530.0,0.2,17.0
1792,38260800.0,442.83333333333,-0.00013844594873778,0.00019056246759571,-5.2116518857926e-05,-9.024896076725201e-07,1.2221971646565e-06,-3.1970755698398e-07,-16.470273366261,45.706412275871,-0.9602704843533,1.2300925925926,50400.0,1.0,1100.0,530.0,0.2,17.0
1796,38347200.0,443.83333333333,-0.00013864723589142,0.00019084543520791,-5.219819931649e-05,-9.0587492490376e-07,1.2270007993323e-06,-3.2112587442856e-07,-16.469874829832,45.744581428279,-0.95819584961759,1.2328703703704,50400.0,1.0,1100.0,530.0,0.2,17.0
1800,38433600.0,444.83333333333,-0.00013884836725325,0.00019112819691987,-5.2279829666619e-05,-9.0926655157919e-07,1.2318142245424e-06,-3.2254767296325e-07,-16.469643420902,45.782419110776,-0.95637594907289,1.2356481481481,50400.0,1.0,1100.0,530.0,0.2,17.0
1804,38520000.0,445.83333333333,-0.00013904940722021,0.00019141080260082,-5.2361395380607e-05,-9.1266434577726e-07,1.2366372541057e-06,-3.2397290832848e-07,-16.469284550142,45.821846802549,-0.95402142291747,1.2384259259258998,50400.0,1.0,1100.0,530.0,0.2,17.0
1808,38606400.0,446.83333333333,-0.00013925028188977,0.00019169318478009,-5.2442902890317e-05,-9.1606786052111e-07,1.2414692588372e-06,-3.2540139831608e-07,-16.468864406282,45.854897845131,-0.95329450556729,1.2412037037037,50400.0,1.0,1100.0,530.0,0.2,17.0
1812,38692800.0,447.83333333333,-0.00013945104758703,0.00019197539734155,-5.2524349754528e-05,-9.194776004859001e-07,1.2463109332571999e-06,-3.2683333277129003e-07,-16.468659871175,45.895126628732,-0.9507924550975899,1.2439814814815,50400.0,1.0,1100.0,530.0,0.2,17.0
1816,38779200.0,448.83333333333,-0.00013965170602642,0.00019225745274823,-5.2605746721815005e-05,-9.228939271827e-07,1.2511628072623001e-06,-3.2826888007964e-07,-16.46837982262,45.931033633933,-0.94930127029196,1.2467592592593,50400.0,1.0,1100.0,530.0,0.2,17.0
1820,38865600.0,449.83333333333,-0.00013985222877448998,0.00019253931016921,-5.2687081394711e-05,-9.263161609802e-07,1.2560239144116998e-06,-3.2970775343147997e-07,-16.468058275876,45.969845221425,-0.947165459036,1.249537037037,50400.0,1.0,1100.0,530.0,0.2,17.0
1824,38952000.0,450.83333333333,-0.00014005262004065,0.00019282097640619,-5.2768356365538e-05,-9.297444652485799e-07,1.2608944819175e-06,-3.3115001666889e-07,-16.467658582009,46.006036708733,-0.9455892437897401,1.2523148148148,50400.0,1.0,1100.0,530.0,0.2,17.0
1828,39038400.0,451.83333333333,-0.00014025290029751002,0.00019310248093816002,-5.2849580640648e-05,-9.3317936290625e-07,1.2657752599071998e-06,-3.3259589700090997e-07,-16.46738766444,46.04450666228,-0.94345912511082,1.2550925925926002,50400.0,1.0,1100.0,530.0,0.2,17.0
1832,39124800.0,452.83333333333,-0.00014045304873158002,0.00019338379606506,-5.2930747333472995e-05,-9.366202913854499e-07,1.2706654573391e-06,-3.3404516595363997e-07,-16.467045134381,46.085707182709,-0.94086774474981,1.2578703703704,50400.0,1.0,1100.0,530.0,0.2,17.0
1836,39211200.0,453.83333333333,-0.00014065307102533998,0.00019366491870387,-5.3011847678525e-05,-9.4006701786719e-07,1.2755647327232e-06,-3.3549771485602005e-07,-16.466754038064,46.120207664617006,-0.9396113622121899,1.2606481481481,50400.0,1.0,1100.0,530.0,0.2,17.0
1840,39297600.0,454.83333333333,-0.00014085298208451,0.00019394588498682,-5.3092902902303995e-05,-9.435205183457899e-07,1.2804744772658999e-06,-3.3695395892013996e-07,-16.466351345553,46.158816857249,-0.93737791936762,1.2634259259259,50400.0,1.0,1100.0,530.0,0.2,17.0
1844,39384000.0,455.83333333333,-0.00014105273164396998,0.00019422662259211,-5.3173890948147e-05,-9.4697939968965e-07,1.2853927105306998e-06,-3.3841331084104e-07,-16.466086675199,46.195151513996,-0.93569683900691,1.2662037037037,50400.0,1.0,1100.0,530.0,0.2,17.0
1848,39470400.0,456.83333333333,-0.00014125235842877,0.00019450719048061,-5.3254832051838e-05,-9.504447646375601e-07,1.2903210112566002e-06,-3.3987624661903e-07,-16.465746550462,46.230186082390006,-0.9344371868342499,1.2689814814815,50400.0,1.0,1100.0,530.0,0.2,17.0
1852,39556800.0,457.83333333333,-0.00014145188724647,0.0001947875996931,-5.3335712446632e-05,-9.5391625837247e-07,1.2952588798392999e-06,-3.4134262146686e-07,-16.465506916901,46.269183181313,-0.93213883300272,1.2717592592593001,50400.0,1.0,1100.0,530.0,0.2,17.0
1856,39643200.0,458.83333333333,-0.00014165129693423001,0.00019506783592303998,-5.3416538988807e-05,-9.5739402416724e-07,1.3002065105418001e-06,-3.4281248637455003e-07,-16.465166534575,46.310828179655,-0.9292551160363901,1.2745370370370002,50400.0,1.0,1100.0,530.0,0.2,17.0
1860,39729600.0,459.83333333333,-0.00014185056003241002,0.00019534785659478998,-5.3497296562378e-05,-9.6087713962281e-07,1.305162605054e-06,-3.4428546543118e-07,-16.464732206565,46.347323612136,-0.9275424711500301,1.2773148148148,50400.0,1.0,1100.0,530.0,0.2,17.0
1864,39816000.0,460.83333333333,-0.0001420496691514,0.00019562765908525,-5.3577989933847e-05,-9.6436557764757e-07,1.3101271281041e-06,-3.4576155045657e-07,-16.464615687413,46.383665295979995,-0.92619851174336,1.2800925925926,50400.0,1.0,1100.0,530.0,0.2,17.0
1868,39902400.0,461.83333333333,-0.00014224869587276,0.00019590733925795,-5.3658643385197e-05,-9.6786159466575e-07,1.3151032428931001e-06,-3.4724164822733e-07,-16.464255908715,46.418905127927,-0.92454441210825,1.2828703703703999,50400.0,1.0,1100.0,530.0,0.2,17.0
1872,39988800.0,462.83333333333,-0.00014244763524908998,0.00019618688877366,-5.3739253524568e-05,-9.713645510581302e-07,1.3200900802494e-06,-3.4872552919127e-07,-16.463885409533,46.46178213324001,-0.9213802093977299,1.2856481481481001,50400.0,1.0,1100.0,530.0,0.2,17.0
1876,40075200.0,463.83333333333,-0.00014264637555561998,0.00019646616021534,-5.3819784659717e-05,-9.7487163280218e-07,1.3250836533106001e-06,-3.5021202050839e-07,-16.463577796998,46.497071439688995,-0.9198189359365401,1.2884259259258999,50400.0,1.0,1100.0,530.0,0.2,17.0
1880,40161600.0,464.83333333333,-0.0001428450219398,0.00019674528858549,-5.3900266645693e-05,-9.783854520610901e-07,1.3300876587101002e-06,-3.5170220664905e-07,-16.463288936218,46.53277155393501,-0.9184988425185201,1.2912037037037,50400.0,1.0,1100.0,530.0,0.2,17.0
1884,40248000.0,465.83333333333,-0.00014304358253083998,0.00019702428111196,-5.3980698581123e-05,-9.8190598195171e-07,1.3351020588455e-06,-3.5319607689375e-07,-16.462960653257998,46.568977766414,-0.91695726925073,1.2939814814815,50400.0,1.0,1100.0,530.0,0.2,17.0
1888,40334400.0,466.83333333333,-0.00014324200404741,0.00019730308581763,-5.4061081770218e-05,-9.854327719369301e-07,1.340126210694e-06,-3.5469343875707004e-07,-16.462628035684,46.610686035807,-0.91390820758185,1.2967592592593,50400.0,1.0,1100.0,530.0,0.2,17.0
1892,40420800.0,467.83333333333,-0.00014344028132287,0.00019758168138123,-5.4141400058364e-05,-9.8896484802057e-07,1.3451587454033999e-06,-3.5619389738278e-07,-16.462323552765,46.644030067931006,-0.91284666778941,1.299537037037,50400.0,1.0,1100.0,530.0,0.2,17.0
1896,40507200.0,468.83333333333,-0.00014363848447681999,0.00019786016367063998,-5.4221679193821005e-05,-9.9250449808205e-07,1.3502028947135e-06,-3.5769839663147004e-07,-16.462039151118,46.679815917835995,-0.9111809448086099,1.3023148148148,50400.0,1.0,1100.0,530.0,0.2,17.0
1900,40593600.0,469.83333333333,-0.00014383656249698,0.00019813846109778,-5.4301898600798e-05,-9.9604981572789e-07,1.3552559705986e-06,-3.5920615487068e-07,-16.461772423616,46.71673056287,-0.9093232532481401,1.3050925925926002,50400.0,1.0,1100.0,530.0,0.2,17.0
1904,40680000.0,470.83333333333,-0.00014403453066069,0.00019841659437831,-5.4382063717617996e-05,-9.996013735511998e-07,1.3603187798201e-06,-3.6071740626893e-07,-16.461505308767,46.753828823127,-0.9075595863840799,1.3078703703704,50400.0,1.0,1100.0,530.0,0.2,17.0
1908,40766400.0,471.83333333333,-0.00014423239828801002,0.00019869457786183,-5.4462179573827e-05,-1.003159624064e-06,1.3653919645892e-06,-3.622323405252e-07,-16.461063946005,46.789589398618,-0.90594712151427,1.3106481481481,50400.0,1.0,1100.0,530.0,0.2,17.0
1912,40852800.0,472.83333333333,-0.0001444301634359,0.00019897240470221998,-5.4542241266323e-05,-1.0067241125318002e-06,1.3704748899096e-06,-3.6375077737779e-07,-16.460849083988,46.82566087583,-0.90413697033327,1.3134259259258998,50400.0,1.0,1100.0,530.0,0.2,17.0
1916,40939200.0,473.83333333333,-0.00014462781359802,0.0001992500603774,-5.4622246779376e-05,-1.0102947025605998e-06,1.3755673528553002e-06,-3.6527265029466e-07,-16.460521160973002,46.863530081307005,-0.9020398753273499,1.3162037037037,50400.0,1.0,1100.0,530.0,0.2,17.0
1920,41025600.0,474.83333333333,-0.00014482531921768,0.00019952751485708,-5.4702195639399e-05,-1.0138709183222e-06,1.3806686847359e-06,-3.6679776641366e-07,-16.460179581571,46.897855751995,-0.9007558937220201,1.3189814814815,50400.0,1.0,1100.0,530.0,0.2,17.0
1924,41112000.0,475.83333333333,-0.0001450227401229,0.00019980484348079,-5.4782103357882e-05,-1.0174542436596002e-06,1.3857809883651e-06,-3.6832674470551e-07,-16.459898508644,46.941742652425006,-0.8972985993627,1.3217592592593002,50400.0,1.0,1100.0,530.0,0.2,17.0
1928,41198400.0,476.83333333333,-0.00014521999826996,0.00020008193103731,-5.4861932767354996e-05,-1.021042074501e-06,1.3909005779688e-06,-3.698585034678e-07,-16.459560168687002,46.969723790695,-0.89745266018621,1.324537037037,50400.0,1.0,1100.0,530.0,0.2,17.0
1932,41284800.0,477.83333333333,-0.00014541721161427,0.00020035894328151,-5.4941731667237e-05,-1.0246378076712e-06,1.3960322762805e-06,-3.7139446860934e-07,-16.459337629584,47.00909412003,-0.89496329816548,1.3273148148148,50400.0,1.0,1100.0,530.0,0.2,17.0
1936,41371200.0,478.83333333333,-0.00014561428415732,0.00020063575777393,-5.5021473616607996e-05,-1.028239374644e-06,1.4011731337108e-06,-3.7293375906682e-07,-16.459005719923,47.044390109746,-0.89345184412626,1.3300925925926002,50400.0,1.0,1100.0,530.0,0.2,17.0
1940,41457600.0,479.83333333333,-0.00014581126423765,0.00020091243016626,-5.5101165928606995e-05,-1.0318473810211e-06,1.4063240261533999e-06,-3.7447664513228003e-07,-16.458673508505,47.083097768212994,-0.89100450091522,1.3328703703704,50400.0,1.0,1100.0,530.0,0.2,17.0
1944,41544000.0,480.83333333333,-0.00014600809835797,0.00020118888837925,-5.5180790021272e-05,-1.0354604102389e-06,1.4114829445261001e-06,-3.7602253428728e-07,-16.458402613173,47.117361729934,-0.88979287695724,1.3356481481481002,50400.0,1.0,1100.0,530.0,0.2,17.0
1948,41630400.0,481.83333333333,-0.00014620486214342,0.00020146524220944,-5.5260380066017005e-05,-1.0390812075134e-06,1.4166537639725001e-06,-3.7757255645913e-07,-16.458161555107,47.151567804745,-0.88858465867667,1.3384259259259,50400.0,1.0,1100.0,530.0,0.2,17.0
1952,41716800.0,482.83333333333,-0.0001464015172815,0.00020174143373073998,-5.5339916449241005e-05,-1.0427081473402e-06,1.4218342012433997e-06,-3.7912605390316e-07,-16.457822627363,47.188818229475004,-0.88654182250274,1.3412037037037,50400.0,1.0,1100.0,530.0,0.2,17.0
1956,41803200.0,483.83333333333,-0.00014659806943428,0.0002020174723929,-5.5419402958624e-05,-1.0463413987237e-06,1.4270244912536998e-06,-3.8068309252993e-07,-16.45749760248,47.224301404349006,-0.8850207947280601,1.3439814814814999,50400.0,1.0,1100.0,530.0,0.2,17.0
1960,41889600.0,484.83333333333,-0.00014679450497987,0.00020229333007728,-5.5498825097404005e-05,-1.0499802727686e-06,1.4322236572223e-06,-3.8224338445369e-07,-16.457145240572,47.263447825842,-0.88248017958628,1.3467592592592998,50400.0,1.0,1100.0,530.0,0.2,17.0
1964,41976000.0,485.83333333333,-0.00014699083572237,0.00020256903674689,-5.5578201024518994e-05,-1.053625556573e-06,1.437432822681e-06,-3.8380726610804e-07,-16.456839264779,47.301153667883995,-0.8803478250094101,1.3495370370370001,50400.0,1.0,1100.0,530.0,0.2,17.0
1968,42062400.0,486.83333333333,-0.00014718706252198,0.00020284458869139,-5.5657526169411e-05,-1.0572770714365e-06,1.4426517413202e-06,-3.8537466988366e-07,-16.456528771735,47.334469560110996,-0.87921657417316,1.3523148148148,50400.0,1.0,1100.0,530.0,0.2,17.0
1972,42148800.0,487.83333333333,-0.0001473831812407,0.00020311998542758998,-5.5736804186889e-05,-1.0609352630263002e-06,1.4478810222827e-06,-3.8694575925639e-07,-16.456287943794997,47.370822828879994,-0.8774397849621,1.3550925925926,50400.0,1.0,1100.0,530.0,0.2,17.0
1976,42235200.0,488.83333333333,-0.00014757918353094,0.00020339521120427,-5.5816027673323996e-05,-1.0645991655581e-06,1.4531193213585e-06,-3.8852015580043e-07,-16.455925383814,47.406859636438,-0.8757369419131801,1.3578703703704,50400.0,1.0,1100.0,530.0,0.2,17.0
1980,42321600.0,489.83333333333,-0.00014777509988982,0.00020367029901615,-5.5895199126331004e-05,-1.0682695394501999e-06,1.4583677108171999e-06,-3.9009817136696e-07,-16.455627821821,47.444773944350004,-0.8735099169846999,1.3606481481481,50400.0,1.0,1100.0,530.0,0.2,17.0
1984,42408000.0,490.83333333333,-0.00014797090502009,0.0002039452292905,-5.597432427041e-05,-1.0719463471838002e-06,1.4636261311972999e-06,-3.9167978401348e-07,-16.455334569992,47.483249558749,-0.8710305467309399,1.3634259259259,50400.0,1.0,1100.0,530.0,0.2,17.0
1988,42494400.0,491.83333333333,-0.00014816656712542,0.00020421995529617,-5.6053388170752005e-05,-1.0756284509818001e-06,1.4688929778796002e-06,-3.9326452689781e-07,-16.455028051693002,47.517007668790995,-0.86991240820585,1.3662037037037,50400.0,1.0,1100.0,530.0,0.2,17.0
1992,42580800.0,492.83333333333,-0.00014836216750921,0.00020449457207116,-5.6132404561955006e-05,-1.0793175862676e-06,1.474170705252e-06,-3.9485311898432e-07,-16.454712883676,47.552644890332004,-0.86820047594161,1.3689814814815,50400.0,1.0,1100.0,530.0,0.2,17.0
1996,42667200.0,493.83333333333,-0.00014855766967192,0.00020476904212879,-5.6211372456869994e-05,-1.0830130763700001e-06,1.479458368592e-06,-3.9644529222199e-07,-16.454457733827,47.591824851727,-0.86570004781535,1.3717592592593,50400.0,1.0,1100.0,530.0,0.2,17.0
2000,42753600.0,494.83333333333,-0.00014875307208051002,0.00020504336476763,-5.6290292687112e-05,-1.0867149911316e-06,1.484756065434e-06,-3.9804107430239e-07,-16.454107892089997,47.626067670934,-0.86427241553954,1.374537037037,50400.0,1.0,1100.0,530.0,0.2,17.0
2004,42840000.0,495.83333333333,-0.00014894835146328,0.00020531750328612,-5.6369151822839004e-05,-1.0904224825331998e-06,1.4900625803721e-06,-3.9964009783893e-07,-16.453877897021002,47.659522301973,-0.8632069579118701,1.3773148148148,50400.0,1.0,1100.0,530.0,0.2,17.0
2008,42926400.0,496.83333333333,-0.00014914351075168998,0.00020559147851985,-5.6447967768153006e-05,-1.0941363734682e-06,1.4953790870895e-06,-4.0124271362138e-07,-16.453521404935,47.696707042368004,-0.861132487635,1.3800925925926,50400.0,1.0,1100.0,530.0,0.2,17.0
2012,43012800.0,497.83333333333,-0.00014933857609187,0.00020586530549646,-5.6526729404586996e-05,-1.0978563195979e-06,1.5007051087886999e-06,-4.0284878919089e-07,-16.453127415406,47.736263899643,-0.85846964865685,1.3828703703704,50400.0,1.0,1100.0,530.0,0.2,17.0
2016,43099200.0,498.83333333333,-0.00014953356934024,0.00020613900936097,-5.6605440020727e-05,-1.1015825624711e-06,1.5060410052258002e-06,-4.0445844275472004e-07,-16.452830414921,47.769669923598,-0.85713671339088,1.3856481481481,50400.0,1.0,1100.0,530.0,0.2,17.0
2020,43185600.0,499.83333333333,-0.00014972844052677,0.00020641254499808998,-5.6684104471316006e-05,-1.1053152005056002e-06,1.5113868808478e-06,-4.0607168034222004e-07,-16.45257275274,47.804704820197,-0.85556019446841,1.3884259259259,50400.0,1.0,1100.0,530.0,0.2,17.0
2024,43272000.0,500.83333333333,-0.00014992322151853,0.00020668594458711002,-5.6762723068581995e-05,-1.1090544375711e-06,1.5167430350757e-06,-4.0768859750465997e-07,-16.452348439324,47.841134283595,-0.8536796905844499,1.3912037037037,50400.0,1.0,1100.0,530.0,0.2,17.0
2028,43358400.0,501.83333333333,-0.00015011790850998001,0.0002069591982044,-5.6841289694419996e-05,-1.1127998024224e-06,1.5221088196561e-06,-4.0930901723367e-07,-16.45201317183,47.87857393831899,-0.8514912753768701,1.3939814814815,50400.0,1.0,1100.0,530.0,0.2,17.0
2032,43444800.0,502.83333333333,-0.00015031246805975,0.00020723227055766,-5.6919802497915005e-05,-1.1165509004916999e-06,1.5274836571161002e-06,-4.1093275662434e-07,-16.451660861865,47.91501401953,-0.8495372659450601,1.3967592592593,50400.0,1.0,1100.0,530.0,0.2,17.0
2036,43531200.0,503.83333333333,-0.00015050692140512,0.00020750518416692,-5.699826276179301e-05,-1.1203080552268e-06,1.5328680121679e-06,-4.1255995694113003e-07,-16.451400129989,47.950313020253,-0.84786450450185,1.3995370370370002,50400.0,1.0,1100.0,530.0,0.2,17.0
2040,43617600.0,504.83333333333,-0.00015070130124346002,0.00020777798058057,-5.7076679337111e-05,-1.1240719711513e-06,1.5382628974978001e-06,-4.1419092634648e-07,-16.451130043,47.984870266779005,-0.8464885793648601,1.4023148148148,50400.0,1.0,1100.0,530.0,0.2,17.0
2044,43704000.0,505.83333333333,-0.00015089559275012,0.00020805064536555,-5.7155052615433e-05,-1.1278428361484e-06,1.5436685500953998e-06,-4.1582571394699003e-07,-16.450826562853,48.02214868473,-0.84424631884809,1.4050925925925999,50400.0,1.0,1100.0,530.0,0.2,17.0
2048,43790400.0,506.83333333333,-0.00015108977140096,0.00020832314530865,-5.7233373907692005e-05,-1.1316193198653e-06,1.5490831238169e-06,-4.1746380395159e-07,-16.450471523771,48.058693968853,-0.8422645219283001,1.4078703703703999,50400.0,1.0,1100.0,530.0,0.2,17.0
2052,43876800.0,507.83333333333,-0.00015128384444787,0.00020859548246838998,-5.7311638020516005e-05,-1.1354018273947e-06,1.5545071634678999e-06,-4.1910533607317e-07,-16.450209922731,48.091418175783005,-0.84131393443759,1.4106481481481001,50400.0,1.0,1100.0,530.0,0.2,17.0
2056,43963200.0,508.83333333333,-0.00015147784757303,0.00020886771058243998,-5.7389863009402e-05,-1.1391914756698e-06,1.5599422610757e-06,-4.2075078540582e-07,-16.449851168446,48.128792991266,-0.83895760104879,1.4134259259259,50400.0,1.0,1100.0,530.0,0.2,17.0
2060,44049600.0,509.83333333333,-0.00015167173539198,0.00020913977441647,-5.7468039024485e-05,-1.1429872244968e-06,1.5653869579623998e-06,-4.2239973346563e-07,-16.449575094512998,48.164531338929,-0.83732785429851,1.4162037037037,50400.0,1.0,1100.0,530.0,0.2,17.0
2064,44136000.0,510.83333333333,-0.00015186552952615,0.00020941169445456,-5.7546164928409e-05,-1.1467889660311e-06,1.5708410903836e-06,-4.2405212435252e-07,-16.449254865156,48.203037025372,-0.8348033402320699,1.4189814814815,50400.0,1.0,1100.0,530.0,0.2,17.0
2068,44222400.0,511.83333333333,-0.00015205921052385,0.00020968344311785,-5.7624232594001e-05,-1.1505964438125e-06,1.5763042950893e-06,-4.2570785127673996e-07,-16.448902237759,48.239399274871,-0.8327850320839499,1.4217592592593,50400.0,1.0,1100.0,530.0,0.2,17.0
2072,44308800.0,512.83333333333,-0.00015225277153049,0.00020995502184983,-5.7702250319337e-05,-1.1544100644324e-06,1.5817771399197e-06,-4.2736707548724e-07,-16.448686802764,48.270074837026996,-0.8322191830286599,1.424537037037,50400.0,1.0,1100.0,530.0,0.2,17.0
2076,44395200.0,513.83333333333,-0.00015244629667045,0.00021022653075088998,-5.7780234080444995e-05,-1.1582311621162e-06,1.5872615423664e-06,-4.2903038025027e-07,-16.448381156891998,48.305205337529,-0.83062414876074,1.4273148148148,50400.0,1.0,1100.0,530.0,0.2,17.0
2080,44481600.0,514.83333333333,-0.00015263972150933,0.00021049788531621002,-5.7858163806876e-05,-1.1620582158353e-06,1.5927553338782e-06,-4.3069711804294996e-07,-16.4481681933,48.34125570334601,-0.8286860562041801,1.4300925925926,50400.0,1.0,1100.0,530.0,0.2,17.0
2084,44568000.0,515.83333333333,-0.00015283306921345,0.0002107691170288,-5.7936047815346e-05,-1.1658919376237e-06,1.598259533028e-06,-4.3236759540436e-07,-16.447817406802002,48.376718326925,-0.8270651571205899,1.4328703703704,50400.0,1.0,1100.0,530.0,0.2,17.0
2088,44654400.0,516.83333333333,-0.00015302630274186002,0.00021104018109278,-5.8013878350921e-05,-1.169731522103e-06,1.6037729795548999e-06,-4.340414574519e-07,-16.447519539677,48.413059565721,-0.82493860813321,1.4356481481481,50400.0,1.0,1100.0,530.0,0.2,17.0
2092,44740800.0,517.83333333333,-0.00015321945397009,0.00021131111921294,-5.8091665242856004e-05,-1.1735775226234e-06,1.6092964895335e-06,-4.3571896691009e-07,-16.447037197333,48.452284562340004,-0.8222367700327999,1.4384259259259,50400.0,1.0,1100.0,530.0,0.2,17.0
2096,44827200.0,518.83333333333,-0.0001534124286466,0.0002115818232026,-5.8169394555996997e-05,-1.1774281985027e-06,1.6148275711953999e-06,-4.3739937269269e-07,-16.446856331176,48.486820402163,-0.8207044009708199,1.4412037037037,50400.0,1.0,1100.0,530.0,0.2,17.0
2100,44913600.0,519.83333333333,-0.00015360536789178,0.00021185245468416998,-5.8247086792386e-05,-1.1812865992497e-06,1.6203705571489e-06,-4.3908395789926004e-07,-16.446537847997,48.521270515705005,-0.81912754781496,1.4439814814815,50400.0,1.0,1100.0,530.0,0.2,17.0
2104,45000000.0,520.83333333333,-0.00015379820218503,0.00021212293258025,-5.8324730395228e-05,-1.1851513689148001e-06,1.6259235145350001e-06,-4.4077214562020996e-07,-16.446315522402,48.55662168165,-0.81711228144245,1.4467592592593,50400.0,1.0,1100.0,530.0,0.2,17.0
2108,45086400.0,521.83333333333,-0.0001539909286698,0.00021239324064143,-5.8402311971631993e-05,-1.1890214226807e-06,1.6314849282886999e-06,-4.4246350560799e-07,-16.446086076899,48.592464566203006,-0.81543906813801,1.449537037037,50400.0,1.0,1100.0,530.0,0.2,17.0
2112,45172800.0,522.83333333333,-0.00015418356323826,0.00021266342042666002,-5.84798571884e-05,-1.192898216564e-06,1.637056856035e-06,-4.4415863947104997e-07,-16.445705952695,48.628031910367,-0.81342789341423,1.4523148148148,50400.0,1.0,1100.0,530.0,0.2,17.0
2116,45259200.0,523.83333333333,-0.0001543761105653,0.00021293346141133002,-5.855735084603101e-05,-1.196781234058e-06,1.6426385697093e-06,-4.4585733565129006e-07,-16.445411363494,48.662481660518,-0.81183106988474,1.4550925925926,50400.0,1.0,1100.0,530.0,0.2,17.0
2120,45345600.0,524.83333333333,-0.00015456853373869,0.00021320332971726,-5.863479597857e-05,-1.2006700496241e-06,1.6482294608225e-06,-4.475594111984e-07,-16.445128942311,48.699142884799,-0.8097419796121099,1.4578703703704,50400.0,1.0,1100.0,530.0,0.2,17.0
2124,45432000.0,525.83333333333,-0.00015476087814982,0.00021347306976154,-5.8712191611723e-05,-1.2045650529964e-06,1.6538300892706998e-06,-4.492650362743e-07,-16.444787047776,48.732769350935,-0.80840336890203,1.4606481481481002,50400.0,1.0,1100.0,530.0,0.2,17.0
2128,45518400.0,526.83333333333,-0.00015495316434183,0.00021374271190278,-5.8789547560952e-05,-1.2084671976476002e-06,1.6594418120631001e-06,-4.5097461441548007e-07,-16.444433909763998,48.77449251913,-0.8052916698588299,1.4634259259259002,50400.0,1.0,1100.0,530.0,0.2,17.0
2132,45604800.0,527.83333333333,-0.00015514534255318,0.00021401219110055,-5.8866848547368006e-05,-1.2123749214278e-06,1.6650624041547e-06,-4.5268748272693006e-07,-16.444212965541002,48.803685644432,-0.8049817362042799,1.4662037037037,50400.0,1.0,1100.0,530.0,0.2,17.0
2136,45691200.0,528.83333333333,-0.00015533748139287,0.00021428159897869,-5.8944117585818005e-05,-1.2162904571879e-06,1.6706950368136e-06,-4.5440457962573996e-07,-16.443958041183,48.836300972768,-0.80341702132173,1.4689814814814999,50400.0,1.0,1100.0,530.0,0.2,17.0
2140,45777600.0,529.83333333333,-0.00015552948214301,0.0002145507960473,-5.9021313904284e-05,-1.2202102964265e-06,1.6763347362228001e-06,-4.5612443979635e-07,-16.443612011436,48.873775912834,-0.8012674565079001,1.4717592592592998,50400.0,1.0,1100.0,530.0,0.2,17.0
2144,45864000.0,530.83333333333,-0.0001557214148118,0.00021481989944104,-5.9098484629237e-05,-1.2241379047816002e-06,1.6819864209033e-06,-4.5784851612176e-07,-16.443315292140998,48.906217387241,-0.8003601954989201,1.4745370370370001,50400.0,1.0,1100.0,530.0,0.2,17.0
2148,45950400.0,531.83333333333,-0.00015591325207334,0.00021508887294073,-5.9175620867386e-05,-1.2280724186049e-06,1.6876488545384e-06,-4.5957643593359005e-07,-16.442935901819002,48.949911835855,-0.7965395934101899,1.4773148148148,50400.0,1.0,1100.0,530.0,0.2,17.0
2152,46036800.0,532.83333333333,-0.00015610499975453,0.00021535769022045,-5.9252690465913e-05,-1.2320121584493e-06,1.6933196655155e-06,-4.6130750706616e-07,-16.442658283013998,48.977631901202,-0.79647788748139,1.4800925925926,50400.0,1.0,1100.0,530.0,0.2,17.0
2156,46123200.0,533.83333333333,-0.00015629671298351,0.00021562644661866998,-5.9329733635161e-05,-1.2359596782987e-06,1.6990025027626002e-06,-4.6304282446384003e-07,-16.442463167773,49.013495583979996,-0.7943068149894,1.4828703703704,50400.0,1.0,1100.0,530.0,0.2,17.0
2160,46209600.0,534.83333333333,-0.00015648825993102,0.00021589497601357,-5.9406716082551e-05,-1.2399118741562999e-06,1.7046929270326e-06,-4.6478105287629996e-07,-16.442131383592,49.04770564832,-0.79267250618451,1.4856481481481,50400.0,1.0,1100.0,530.0,0.2,17.0
2164,46296000.0,535.83333333333,-0.00015667973720531002,0.00021616339026885,-5.9483653063538e-05,-1.2438705874808e-06,1.7103935722786998e-06,-4.6652298479793997e-07,-16.441880235727,49.085028022466,-0.7907404621999999,1.4884259259259,50400.0,1.0,1100.0,530.0,0.2,17.0
2168,46382400.0,536.83333333333,-0.00015687115144325,0.00021643170484908,-5.9560553405828005e-05,-1.2478364437453002e-06,1.7161053170158997e-06,-4.6826887327061007e-07,-16.441559595883,49.118389563973,-0.7892103371738299,1.4912037037037,50400.0,1.0,1100.0,530.0,0.2,17.0
2172,46468800.0,537.83333333333,-0.00015706248375656,0.00021669989283233998,-5.963740907577901e-05,-1.2518088489127e-06,1.7218273246875e-06,-4.7001847577482005e-07,-16.44130079743,49.155410774554994,-0.7871668126122099,1.4939814814815,50400.0,1.0,1100.0,530.0,0.2,17.0
2176,46555200.0,538.83333333333,-0.0001572537112947,0.00021696792236028002,-5.9714211065575e-05,-1.2557869394193997e-06,1.7275583546896999e-06,-4.7177141527032e-07,-16.440916703779997,49.189291261125,-0.78531769818024,1.4967592592593,50400.0,1.0,1100.0,530.0,0.2,17.0
2180,46641600.0,539.83333333333,-0.00015744485064794,0.00021723581539782,-5.9790964749877e-05,-1.2597713409201e-06,1.7332993131886e-06,-4.7352797226852997e-07,-16.440653722687,49.222304350648,-0.78394039507209,1.499537037037,50400.0,1.0,1100.0,530.0,0.2,17.0
2184,46728000.0,540.83333333333,-0.00015763592014063,0.00021750359069931002,-5.986767055868e-05,-1.263761950037e-06,1.7390500680571999e-06,-4.7528811802018995e-07,-16.440324129193,49.262897223565,-0.7811238977163399,1.5023148148148,50400.0,1.0,1100.0,530.0,0.2,17.0
2188,46814400.0,541.83333333333,-0.00015782690805575,0.00021777124709182,-5.9944339036063e-05,-1.2677593873381e-06,1.7448114803051999e-06,-4.7705209296714e-07,-16.440137314912,49.285135928498,-0.7819334817129999,1.5050925925926,50400.0,1.0,1100.0,530.0,0.2,17.0
2192,46900800.0,542.83333333333,-0.0001580177776195,0.00021803873199196998,-6.0020954372464e-05,-1.2717626031483e-06,1.7505820528011002e-06,-4.788194496528201e-07,-16.439785074408,49.327017860196,-0.77868290630738,1.5078703703704,50400.0,1.0,1100.0,530.0,0.2,17.0
2195,46922400.0,543.08333333333,-0.0001580177776195,0.00021803873199196998,-6.0020954372464e-05,-1.2717626031483e-06,1.7505820528011002e-06,-4.788194496528201e-07,0.45066089302813,70.307779911686,41.070423940482996,1.5085648148148,90000.0,3.0,25.0,25.0,0.1,0.1
2199,47023200.0,544.25,-0.00015803092157952,0.00021805435035273,-6.0023428773205e-05,-1.2720212537053002e-06,1.7509501481976001e-06,-4.789288944923001e-07,-16.442761757032002,49.283230844262,-0.7961548464486401,1.5118055555556003,50400.0,1.0,1100.0,530.0,0.2,17.0
2203,47109600.0,545.25,-0.00015822149449298,0.00021832141999152,-6.0099925498531994e-05,-1.2760251508846e-06,1.7567226717703998e-06,-4.8069752088576e-07,-16.439512389363998,49.358599089747,-0.7778987574571,1.5145833333333,50400.0,1.0,1100.0,530.0,0.2,17.0
2207,47196000.0,546.25,-0.00015841221766519,0.00021858866717528,-6.0176449510085e-05,-1.2800413429381e-06,1.7625136952624e-06,-4.8247235232423e-07,-16.439145945903,49.402934955293,-0.77432235373535,1.5173611111111,50400.0,1.0,1100.0,530.0,0.2,17.0
2211,47282400.0,547.25,-0.00015860289476358,0.00021885583405101,-6.025293928743101e-05,-1.2840648997772e-06,1.7683161522823997e-06,-4.842512525051501e-07,-16.438928189898,49.431383508787,-0.77368490431039,1.5201388888889,50400.0,1.0,1100.0,530.0,0.2,17.0
2215,47368800.0,548.25,-0.00015879344586917,0.00021912282428143,-6.032937841225699e-05,-1.2880940389528e-06,1.7741275047663002e-06,-4.860334658134401e-07,-16.438622447841002,49.472486458790996,-0.77080943769939,1.5229166666667,50400.0,1.0,1100.0,530.0,0.2,17.0
2219,47455200.0,549.25,-0.00015898395411518998,0.00021938973170474,-6.040577758955e-05,-1.2921302624831999e-06,1.7799498963771e-06,-4.8781963389392e-07,-16.43827592084,49.508934267991,-0.76876070408406,1.5256944444443998,50400.0,1.0,1100.0,530.0,0.2,17.0
2223,47541600.0,550.25,-0.0001591743739688,0.00021965650492595,-6.048213095715e-05,-1.2961725921158e-06,1.7857819360558998e-06,-4.896093439400899e-07,-16.438028769017,49.536251243778,-0.7682233756910201,1.5284722222222,50400.0,1.0,1100.0,530.0,0.2,17.0
2227,47628000.0,551.25,-0.00015936465020251,0.00021992308208586002,-6.0558431883349e-05,-1.3002201972578001e-06,1.7916224360218003e-06,-4.9140223876405e-07,-16.437808748208,49.574997069051,-0.7657463192722499,1.53125,50400.0,1.0,1100.0,530.0,0.2,17.0
2231,47714400.0,552.25,-0.00015955488596454,0.00022018958484655,-6.063469888201e-05,-1.3042753398283001e-06,1.7974746254334e-06,-4.931992856051e-07,-16.43741118834,49.608390966106995,-0.7641851833210699,1.5340277777778,50400.0,1.0,1100.0,530.0,0.2,17.0
2235,47800800.0,553.25,-0.00015974503965317,0.0002204559628585,-6.0710923205320994e-05,-1.3083368343066001e-06,1.8033368201293999e-06,-4.9499998582279e-07,-16.43713208873,49.643062427312,-0.7623890585523,1.5368055555556002,50400.0,1.0,1100.0,530.0,0.2,17.0
2239,47887200.0,554.25,-0.0001599351057824,0.00022072220579698998,-6.0787100014588e-05,-1.3124043991693002e-06,1.8092086207727002e-06,-4.968042216034199e-07,-16.436861442913,49.680686005397995,-0.76015795882502,1.5395833333333,50400.0,1.0,1100.0,530.0,0.2,17.0
2243,47973600.0,555.25,-0.00016012510859933,0.00022098833271383,-6.08632241145e-05,-1.3164781318266002e-06,1.8150901565253003e-06,-4.986120246987299e-07,-16.436594948534,49.707211180379,-0.7600820472564399,1.5423611111111,50400.0,1.0,1100.0,530.0,0.2,17.0
2247,48060000.0,556.25,-0.00016031497554423998,0.0002212542888287,-6.0939313284462e-05,-1.3205579567007e-06,1.8209813109479999e-06,-5.0042335424734e-07,-16.436337752958,49.744781684273995,-0.7575838568355601,1.5451388888889,50400.0,1.0,1100.0,530.0,0.2,17.0
2251,48146400.0,557.25,-0.00016050478583538,0.00022152014013527,-6.101535429989201e-05,-1.3246442209953e-06,1.8268826124250999e-06,-5.0223839142978e-07,-16.435996867217,49.775014687188,-0.7567930142586701,1.5479166666667,50400.0,1.0,1100.0,530.0,0.2,17.0
2255,48232800.0,558.25,-0.0001606945191889,0.00022178585834672,-6.109133915782e-05,-1.3287363683455e-06,1.8327932470674999e-06,-5.04056878722e-07,-16.435679860839,49.813879250147,-0.75407383707234,1.5506944444443997,50400.0,1.0,1100.0,530.0,0.2,17.0
2259,48319200.0,559.25,-0.00016088416815648998,0.00022205146553088998,-6.1167297374395e-05,-1.3328357204639e-06,1.8387151050523e-06,-5.0587938458841e-07,-16.435458755878,49.845117177187994,-0.7530630224198299,1.5534722222222,50400.0,1.0,1100.0,530.0,0.2,17.0
2263,48405600.0,560.25,-0.00016107374118752,0.00022231695201258998,-6.1243210825074e-05,-1.3369414379633002e-06,1.8446469921770001e-06,-5.0770555421372e-07,-16.435229074959,49.875495389075006,-0.7522433297041801,1.55625,50400.0,1.0,1100.0,530.0,0.2,17.0
2267,48492000.0,561.25,-0.0001612631708513,0.00022258221085702003,-6.131904000572e-05,-1.3410504978745002e-06,1.8505845916937e-06,-5.0953409381918e-07,-16.434819196579,49.915970784212,-0.74910401563618,1.5590277777777999,50400.0,1.0,1100.0,530.0,0.2,17.0
2271,48578400.0,562.25,-0.00016145258780315,0.00022284745358895,-6.1394865785797e-05,-1.3451689113366999e-06,1.8565364987104e-06,-5.1136758737376e-07,-16.434520229754,49.960272295389004,-0.74555492295003,1.5618055555556003,50400.0,1.0,1100.0,530.0,0.2,17.0
2275,48664800.0,563.25,-0.0001616419522065,0.00022311260963584,-6.147065742934499e-05,-1.3492945710467e-06,1.8624996895715001e-06,-5.132051185248299e-07,-16.434220780515002,49.988384874012006,-0.74494383979027,1.5645833333333001,50400.0,1.0,1100.0,530.0,0.2,17.0
2279,48751200.0,564.25,-0.00016183122343231998,0.00022337762676011,-6.154640332779e-05,-1.3534262697222999e-06,1.8684724563281001e-06,-5.1504618660585e-07,-16.433932100297,50.024869240132,-0.74293183633534,1.5673611111111,50400.0,1.0,1100.0,530.0,0.2,17.0
2283,48837600.0,565.25,-0.00016202041636107,0.00022364252011033,-6.1622103749256e-05,-1.3575641132994e-06,1.874454945088e-06,-5.168908317885499e-07,-16.433612641074,50.060600350826995,-0.7409057650883399,1.5701388888889,50400.0,1.0,1100.0,530.0,0.2,17.0
2287,48924000.0,566.25,-0.00016220955431581001,0.00022390731730025,-6.1697762984443e-05,-1.3617087507482e-06,1.8804480753851002e-06,-5.1873932463696e-07,-16.433331430285,50.090566023903996,-0.7400352080976601,1.5729166666667,50400.0,1.0,1100.0,530.0,0.2,17.0
2291,49010400.0,567.25,-0.00016239862177493998,0.00022417199026117003,-6.177336848623101e-05,-1.3658591932268998e-06,1.8864504519688998e-06,-5.205912587420101e-07,-16.433107886734,50.124638834784,-0.73820131206536,1.5756944444443999,50400.0,1.0,1100.0,530.0,0.2,17.0
2295,49096800.0,568.25,-0.00016258759750631,0.00022443654012221,-6.1848942615903e-05,-1.3700166089128e-06,1.8924637337487e-06,-5.2244712483589e-07,-16.432827046499,50.154736481707,-0.7373235572006999,1.5784722222222,50400.0,1.0,1100.0,530.0,0.2,17.0
2299,49183200.0,569.25,-0.00016277648315658,0.00022470095422477001,-6.1924471068185e-05,-1.3741801774331999e-06,1.8984867496503002e-06,-5.2430657221718e-07,-16.432573133531,50.18599132012999,-0.7362121770544201,1.58125,50400.0,1.0,1100.0,530.0,0.2,17.0
2303,49269600.0,570.25,-0.000162965278668,0.0002249652293224,-6.1999950654398e-05,-1.3783495907831998e-06,1.9045190643917e-06,-5.261694736085e-07,-16.432259822372,50.232194639727,-0.7321391803852,1.5840277777778,50400.0,1.0,1100.0,530.0,0.2,17.0
2307,49356000.0,571.25,-0.00016315403986233998,0.00022522942812532997,-6.2075388262988e-05,-1.3825259800918e-06,1.910562294419e-06,-5.280363143272e-07,-16.431858507140998,50.268899394293,-0.72983933051246,1.5868055555556002,50400.0,1.0,1100.0,530.0,0.2,17.0
2311,49442400.0,572.25,-0.00016334272909198,0.00022549351316302003,-6.2150784071045e-05,-1.3867087790709e-06,1.9166156335949e-06,-5.2990685452406e-07,-16.431699887746,50.295458311984994,-0.72954166671722,1.5895833333333,50400.0,1.0,1100.0,530.0,0.2,17.0
2315,49528800.0,573.25,-0.00016353131469903998,0.0002257574402398,-6.2226125540751e-05,-1.3908971183425e-06,1.9226778338437e-06,-5.317807155012e-07,-16.431405506586,50.327548149474,-0.72829998077737,1.5923611111111,50400.0,1.0,1100.0,530.0,0.2,17.0
2319,49615200.0,574.25,-0.00016371982806954,0.00022602127188066002,-6.2301443811125e-05,-1.3950930859545e-06,1.9287518833546003e-06,-5.3365879740006e-07,-16.431000032176,50.370515960022004,-0.724744854113,1.5951388888889,50400.0,1.0,1100.0,530.0,0.2,17.0
2323,49701600.0,575.25,-0.00016390829586824,0.00022628501155158999,-6.2376715683345e-05,-1.3992953745459998e-06,1.9348359242069e-06,-5.3554054966099e-07,-16.430774169128,50.399724634945,-0.72404655125444,1.5979166666667,50400.0,1.0,1100.0,530.0,0.2,17.0
2327,49788000.0,576.25,-0.00016409666683991,0.0002265486152775,-6.245194843759e-05,-1.4035039460351e-06,1.9409298949179e-06,-5.374259488828101e-07,-16.430454477133,50.438099245589,-0.7215269289234799,1.6006944444443998,50400.0,1.0,1100.0,530.0,0.2,17.0
2331,49874400.0,577.25,-0.00016428498786181001,0.00022681212078046,-6.2527132918645e-05,-1.4077189510396002e-06,1.947034019444e-06,-5.3931506840449e-07,-16.430162709277,50.475632614362,-0.71897597259156,1.6034722222222,50400.0,1.0,1100.0,530.0,0.2,17.0
2335,49960800.0,578.25,-0.00016447323098441998,0.00022707550756069,-6.260227657626899e-05,-1.4119404653869e-06,1.9531483980768e-06,-5.4120793268988e-07,-16.429917527743,50.508602778778,-0.71753065089429,1.60625,50400.0,1.0,1100.0,530.0,0.2,17.0
2339,50047200.0,579.25,-0.00016466138328307,0.00022733876773482997,-6.2677384451763e-05,-1.416168344173e-06,1.9592728272955004e-06,-5.4310448312248e-07,-16.429530897517,50.542933496597,-0.7157334925829001,1.6090277777778,50400.0,1.0,1100.0,530.0,0.2,17.0
2343,50133600.0,580.25,-0.00016484948866473,0.00022760193245204,-6.2752443787314e-05,-1.4204026236726001e-06,1.9654073730772e-06,-5.450047494045999e-07,-16.42935552135,50.569342830739004,-0.71549656583032,1.6118055555556001,50400.0,1.0,1100.0,530.0,0.2,17.0
2347,50220000.0,581.25,-0.00016503750539093,0.00022786497474351001,-6.2827469352585e-05,-1.4246438997667e-06,1.9715528590994e-06,-5.469089593327199e-07,-16.429047449168998,50.607216014653,-0.71310912897605,1.6145833333333,50400.0,1.0,1100.0,530.0,0.2,17.0
2351,50306400.0,582.25,-0.0001652254456947,0.0002281278885557,-6.2902442860994e-05,-1.4288907043356001e-06,1.9777072158321e-06,-5.4881651149648e-07,-16.428687474154998,50.644089363574,-0.7106760028511401,1.6173611111111,50400.0,1.0,1100.0,530.0,0.2,17.0
2355,50392800.0,583.25,-0.00016541333980946,0.00022839071645945,-6.2977376649987e-05,-1.4331443769734e-06,1.9838723568573996e-06,-5.5072797988403e-07,-16.428428609338,50.678066264832,-0.70901411212221,1.6201388888889,50400.0,1.0,1100.0,530.0,0.2,17.0
2359,50479200.0,584.25,-0.00016560117673573,0.00022865346068448998,-6.3052283948757e-05,-1.4374057304273997e-06,1.9900494240726e-06,-5.526436936451999e-07,-16.428132869453,50.712181843257,-0.70723808986475,1.6229166666666999,50400.0,1.0,1100.0,530.0,0.2,17.0
2363,50565600.0,585.25,-0.00016578892853336,0.00022891608045248998,-6.3127151919127e-05,-1.4416733215277e-06,1.9962363802104e-06,-5.5456305868271e-07,-16.427789162870003,50.745042573484,-0.7057186327012099,1.6256944444443997,50400.0,1.0,1100.0,530.0,0.2,17.0
2367,50652000.0,586.25,-0.00016597662789116002,0.00022917860475363998,-6.3201976862482e-05,-1.4459474351853001e-06,2.0024336340106e-06,-5.564861988252499e-07,-16.427583689005,50.77696426635,-0.7045061713701999,1.6284722222222001,50400.0,1.0,1100.0,530.0,0.2,17.0
2371,50738400.0,587.25,-0.00016616423145663002,0.00022944098766284,-6.3276756206208e-05,-1.45022754382e-06,2.0086404048268996e-06,-5.584128610069199e-07,-16.427367269298998,50.808894072198,-0.70307640320694,1.63125,50400.0,1.0,1100.0,530.0,0.2,17.0
2375,50824800.0,588.25,-0.00016635174956085,0.00022970323986895,-6.3351490308099e-05,-1.4545136219366998e-06,2.0148566736566003e-06,-5.6034305171987e-07,-16.427015948426,50.844777554892,-0.70103046865601,1.6340277777778,50400.0,1.0,1100.0,530.0,0.2,17.0
2379,50911200.0,589.25,-0.000166539225949,0.00022996541701419,-6.3426191065191e-05,-1.4588067891918e-06,2.0210840534053003e-06,-5.622772642135299e-07,-16.42677200186,50.878895321862004,-0.69926098258846,1.6368055555556003,50400.0,1.0,1100.0,530.0,0.2,17.0
2383,50997600.0,590.25,-0.00016672661477806002,0.00023022745373786,-6.3500838959799e-05,-1.4631055779828e-06,2.0273204318244e-06,-5.6421485384156e-07,-16.426504129034,50.91541662272,-0.69689781310368,1.6395833333333,50400.0,1.0,1100.0,530.0,0.2,17.0
2387,51084000.0,591.25,-0.00016691391216765,0.00023048935966224,-6.357544749459399e-05,-1.4674108817001002e-06,2.0335670781291002e-06,-5.6615619642893e-07,-16.42622999064,50.948908848327996,-0.6952265879013001,1.6423611111111,50400.0,1.0,1100.0,530.0,0.2,17.0
2391,51170400.0,592.25,-0.00016710115128435,0.00023075116161615,-6.3650010331802e-05,-1.4717224832164e-06,2.0398237032025002e-06,-5.6810121998611e-07,-16.42581954873,50.983939065031,-0.69317282767859,1.6451388888889,50400.0,1.0,1100.0,530.0,0.2,17.0
2395,51256800.0,593.25,-0.00016728832030597,0.00023101285683554,-6.3724536529562e-05,-1.476040591764e-06,2.0460906080129e-06,-5.7005001624888e-07,-16.425602942266,51.009334018179,-0.69313003751738,1.6479166666667,50400.0,1.0,1100.0,530.0,0.2,17.0
2399,51343200.0,594.25,-0.00016747540880901002,0.00023127443442968998,-6.3799025620676e-05,-1.4803653525431e-06,2.0523679898155e-06,-5.720026372724399e-07,-16.42519231936,51.049065407014,-0.69040726509667,1.6506944444443998,50400.0,1.0,1100.0,530.0,0.2,17.0
2403,51429600.0,595.25,-0.00016766243272024,0.00023153589759148998,-6.3873464871253e-05,-1.4846960768598e-06,2.0586548745562998e-06,-5.7395879769649e-07,-16.424925583164,51.083998476793006,-0.6884412000551,1.6534722222222,50400.0,1.0,1100.0,530.0,0.2,17.0
2407,51516000.0,596.25,-0.00016784940182829,0.00023179727199396002,-6.3947870165664e-05,-1.4890338578772e-06,2.064952822584e-06,-5.7591896470685e-07,-16.424719190037,51.115624234093,-0.68722983812386,1.65625,50400.0,1.0,1100.0,530.0,0.2,17.0
2411,51602400.0,597.25,-0.00016803627701092,0.00023205851017257998,-6.4022233161659e-05,-1.4933776292562e-06,2.0712603023128997e-06,-5.778826730567799e-07,-16.424462768866,51.149288649582004,-0.68534534888797,1.6590277777778,50400.0,1.0,1100.0,530.0,0.2,17.0
2415,51688800.0,598.25,-0.00016822310250639,0.00023231966742555,-6.4096564919156e-05,-1.4977284149187e-06,2.0775788025121998e-06,-5.798503875934801e-07,-16.424138762545,51.185773034975995,-0.68285154892232,1.6618055555556002,50400.0,1.0,1100.0,530.0,0.2,17.0
2419,51775200.0,599.25,-0.00016840985450162,0.00023258069716319,-6.4170842661563e-05,-1.5020849609622e-06,2.0839065086252e-06,-5.81821547663e-07,-16.423874409406,51.219134378702,-0.68127363320249,1.6645833333333,50400.0,1.0,1100.0,530.0,0.2,17.0
2423,51861600.0,600.25,-0.00016859653960916,0.0002328416208495,-6.424508124033399e-05,-1.5064479085576001e-06,2.090244350401e-06,-5.8379644184341e-07,-16.423597915284,51.25014609573,-0.6802807021723901,1.6673611111111,50400.0,1.0,1100.0,530.0,0.2,17.0
2427,51948000.0,601.25,-0.00016878318059366002,0.00023310247220921,-6.431929161554201e-05,-1.5108185236284e-06,2.0965941290586004e-06,-5.8577560543019e-07,-16.42333125516,51.287412160600006,-0.67763484095989,1.6701388888889,50400.0,1.0,1100.0,530.0,0.2,17.0
2431,52034400.0,602.25,-0.0001689697747432,0.00023336324392367997,-6.4393469180485e-05,-1.5151962118261003e-06,2.1029550163796003e-06,-5.8775880455345e-07,-16.423081335603,51.318169848815,-0.67657522969607,1.6729166666667,50400.0,1.0,1100.0,530.0,0.2,17.0
2435,52120800.0,603.25,-0.00016915626148266002,0.00023362385268934,-6.4467591206681e-05,-1.5195790680636002e-06,2.1093242581988e-06,-5.8974519013517e-07,-16.422664774195002,51.355898054322004,-0.67401670946739,1.6756944444443997,50400.0,1.0,1100.0,530.0,0.2,17.0
2439,52207200.0,604.25,-0.00016934266273443,0.00023388433985941002,-6.4541677124972e-05,-1.5239681368206002e-06,2.1157033727168998e-06,-5.9173523589626e-07,-16.422437260228,51.38727864349399,-0.6726764757711899,1.6784722222222,50400.0,1.0,1100.0,530.0,0.2,17.0
2443,52293600.0,605.25,-0.00016952904045335,0.00023414477908371002,-6.4615738630359e-05,-1.5283652783318e-06,2.1220950119631e-06,-5.937297336313001e-07,-16.422181885251998,51.417735387278,-0.6715845101826501,1.68125,50400.0,1.0,1100.0,530.0,0.2,17.0
2447,52380000.0,606.25,-0.000169715373568,0.00023440514270727997,-6.468976913928101e-05,-1.5327698155263e-06,2.1284982193134996e-06,-5.9572840378716e-07,-16.421945555624,51.45428355382,-0.66926022610197,1.6840277777777999,50400.0,1.0,1100.0,530.0,0.2,17.0
2451,52466400.0,607.25,-0.0001699016551868,0.00023466540762926002,-6.4763752442455e-05,-1.5371805279348e-06,2.1349112507391002e-06,-5.977307228043e-07,-16.421604887675,51.487015804105994,-0.66769236299084,1.6868055555556003,50400.0,1.0,1100.0,530.0,0.2,17.0
2455,52552800.0,608.25,-0.0001700878437277,0.00023492554209894,-6.4837698371243e-05,-1.5415974520401e-06,2.1413341464678003e-06,-5.9973669442761e-07,-16.421314283905,51.519371930104,-0.66635910648914,1.6895833333333001,50400.0,1.0,1100.0,530.0,0.2,17.0
2459,52639200.0,609.25,-0.00017027395426826998,0.00023518554388525,-6.491158961698199e-05,-1.5460197417528999e-06,2.1477657010758e-06,-6.017459593229e-07,-16.421061393614,51.553536368985995,-0.66456890851371,1.6923611111111,50400.0,1.0,1100.0,530.0,0.2,17.0
2463,52725600.0,610.25,-0.00017045997522139,0.00023544540673402003,-6.4985431512633e-05,-1.5504476576057e-06,2.1542062779345e-06,-6.037586203288299e-07,-16.420806000243,51.587221022872,-0.66248854859758,1.6951388888889,50400.0,1.0,1100.0,530.0,0.2,17.0
2467,52812000.0,611.25,-0.00017064594517784,0.00023570519250997002,-6.5059247332125e-05,-1.5548830449341999e-06,2.1606585437513e-06,-6.057754988170201e-07,-16.420515307196,51.624042155492,-0.6601350336075401,1.6979166666667,50400.0,1.0,1100.0,530.0,0.2,17.0
2471,52898400.0,612.25,-0.00017083184064949,0.00023596485537742999,-6.5133014727939e-05,-1.5593244659691e-06,2.16712041238e-06,-6.0779594641096e-07,-16.42025193265,51.648612080582,-0.6601798283164699,1.7006944444443999,50400.0,1.0,1100.0,530.0,0.2,17.0
2475,52984800.0,613.25,-0.00017101772037996,0.00023622448459809,-6.5206764218127e-05,-1.563774213938e-06,2.1735951997507e-06,-6.0982098581263e-07,-16.420019957922,51.687713974177,-0.65739750447171,1.7034722222222,50400.0,1.0,1100.0,530.0,0.2,17.0
2479,53071200.0,614.25,-0.0001712035401492,0.00023648401924556,-6.5280479096366e-05,-1.5682308412674998e-06,2.1800808206304e-06,-6.118499793629099e-07,-16.419651115335,51.724335361884,-0.6550037795936701,1.70625,50400.0,1.0,1100.0,530.0,0.2,17.0
2483,53157600.0,615.25,-0.00017138928620683,0.00023674343164971001,-6.5354145442875e-05,-1.5726932792113998e-06,2.1865757480264e-06,-6.1388246881495e-07,-16.419432268659,51.75132633759,-0.65442645968806,1.7090277777778,50400.0,1.0,1100.0,530.0,0.2,17.0
2487,53244000.0,616.25,-0.00017157493429486,0.00023700270312165,-6.5427768826789e-05,-1.5771614842753e-06,2.1930799160631e-06,-6.159184317878701e-07,-16.419067258982,51.788147420216,-0.65208658288024,1.7118055555556002,50400.0,1.0,1100.0,530.0,0.2,17.0
2491,53330400.0,617.25,-0.00017176055279796002,0.0002372619094407,-6.550135664274101e-05,-1.5816367933614e-06,2.1995952514982e-06,-6.1795845813687e-07,-16.418830128112,51.821399795853004,-0.65043247053713,1.7145833333333,50400.0,1.0,1100.0,530.0,0.2,17.0
2495,53416800.0,618.25,-0.00017194609157959,0.00023752099544959,-6.557490386999799e-05,-1.5861182874886003e-06,2.2061204187766e-06,-6.2000213128804e-07,-16.418506349806,51.857446997885,-0.64827346957166,1.7173611111111,50400.0,1.0,1100.0,530.0,0.2,17.0
2499,53503200.0,619.25,-0.00017213157893966,0.0002377799905358,-6.564841159614e-05,-1.5906065620616002e-06,2.2126562871767003e-06,-6.2204972511515e-07,-16.418273212655002,51.890814074785006,-0.64638415726945,1.7201388888889,50400.0,1.0,1100.0,530.0,0.2,17.0
2503,53589600.0,620.25,-0.00017231697001221998,0.0002380388460074,-6.5721875995188e-05,-1.5951007028946002e-06,2.2192015324497003e-06,-6.2410082955506e-07,-16.417917507472,51.922083082707005,-0.64504949603595,1.7229166666667,50400.0,1.0,1100.0,530.0,0.2,17.0
2507,53676000.0,621.25,-0.00017250234010238,0.00023829764880877003,-6.5795308706383e-05,-1.5996024389424e-06,2.225758653277e-06,-6.2615621433459e-07,-16.417637458279998,51.953805372211,-0.64373448575494,1.7256944444443998,50400.0,1.0,1100.0,530.0,0.2,17.0
2511,53762400.0,622.25,-0.0001726876574009,0.00023855636610357997,-6.5868708702675e-05,-1.6041110284869e-06,2.2323265849626e-06,-6.2821555647569e-07,-16.417421180342,51.988840977663,-0.6416156479863001,1.7284722222222,50400.0,1.0,1100.0,530.0,0.2,17.0
2515,53848800.0,623.25,-0.00017287288802349,0.00023881494634001,-6.594205831651701e-05,-1.6086252288456002e-06,2.2389035341941003e-06,-6.3027830534854e-07,-16.417135215690998,52.021407583043,-0.6400165764202801,1.73125,50400.0,1.0,1100.0,530.0,0.2,17.0
2519,53935200.0,624.25,-0.00017305808884482,0.00023907347521791002,-6.6015386373091e-05,-1.6131472176856e-06,2.2454926448817998e-06,-6.323454271962499e-07,-16.416866743106,52.052497505654,-0.63880812095202,1.7340277777778,50400.0,1.0,1100.0,530.0,0.2,17.0
2523,54021600.0,625.25,-0.00017324321972566999,0.00023933188975421002,-6.608867002853399e-05,-1.6176753583284e-06,2.2520915538528e-06,-6.3441619552446e-07,-16.416635799233,52.0889070264,-0.63644438463099,1.7368055555556001,50400.0,1.0,1100.0,530.0,0.2,17.0
2527,54108000.0,626.25,-0.00017342825768575,0.0002395901619364,-6.6161904250647e-05,-1.6222089076361e-06,2.2586991887487e-06,-6.364902811126e-07,-16.416288846271,52.121828608641,-0.63467716386701,1.7395833333333,50400.0,1.0,1100.0,530.0,0.2,17.0
2531,54194400.0,627.25,-0.00017361326483798,0.00023984838131727002,-6.6235116479285e-05,-1.6267504590005e-06,2.2653192995598997e-06,-6.385688405594e-07,-16.415977362141,52.156525915060996,-0.63270343288577,1.7423611111111,50400.0,1.0,1100.0,530.0,0.2,17.0
2535,54280800.0,628.25,-0.00017379820470906,0.00024010648589373998,-6.630828118468001e-05,-1.6312977984802e-06,2.2719486985612005e-06,-6.4065090008102e-07,-16.415695319832,52.187546578664,-0.63128954045077,1.7451388888889,50400.0,1.0,1100.0,530.0,0.2,17.0
2539,54367200.0,629.25,-0.0001739830809166,0.00024036448992831002,-6.6381409011709e-05,-1.6358516982593e-06,2.278588494697e-06,-6.427367964377301e-07,-16.415465070395,52.220435204126,-0.6296795665342,1.7479166666666999,50400.0,1.0,1100.0,530.0,0.2,17.0
2543,54453600.0,630.25,-0.00017416791025966002,0.00024062241696232002,-6.645450670266e-05,-1.640412937818e-06,2.285239800959e-06,-6.448268631410499e-07,-16.415153459762003,52.253259161425,-0.62803440028711,1.7506944444443997,50400.0,1.0,1100.0,530.0,0.2,17.0
2547,54540000.0,631.25,-0.00017435267466872,0.00024088024199042,-6.6527567321695e-05,-1.6449806729014e-06,2.2919014121264998e-06,-6.4692073922511e-07,-16.414898941693,52.28619136846599,-0.62643478258835,1.7534722222222001,50400.0,1.0,1100.0,530.0,0.2,17.0
2551,54626400.0,632.25,-0.0001745373927273,0.00024113798388398998,-6.6600591156686e-05,-1.6495554205523001e-06,2.29857406428e-06,-6.4901864372766e-07,-16.414683001415998,52.31860686455,-0.62483204040465,1.75625,50400.0,1.0,1100.0,530.0,0.2,17.0
2555,54712800.0,633.25,-0.00017472205495756,0.00024139563453937,-6.6673579581811e-05,-1.6541368339755e-06,2.305257271162e-06,-6.5112043718653e-07,-16.414344683613,52.350690195962,-0.6233361158709101,1.7590277777778,50400.0,1.0,1100.0,530.0,0.2,17.0
2559,54799200.0,634.25,-0.00017490664712782,0.00024165318199458998,-6.6746534866772e-05,-1.6587250918469999e-06,2.3119512739192e-06,-6.5322618207214e-07,-16.414061216299,52.38382083227899,-0.62151182994361,1.7618055555556003,50400.0,1.0,1100.0,530.0,0.2,17.0
2563,54885600.0,635.25,-0.00017509113803687,0.00024191057042525,-6.6819432388385e-05,-1.6633176561935e-06,2.3186524571381e-06,-6.553348009446201e-07,-16.413819719258,52.416479853461,-0.6198243175832,1.7645833333333,50400.0,1.0,1100.0,530.0,0.2,17.0
2567,54972000.0,636.25,-0.0001752755890364,0.00024216788911567998,-6.689230007927901e-05,-1.6679177325368e-06,2.3253654147251e-06,-6.5744768218829e-07,-16.413467013282002,52.45234328652099,-0.61766402792332,1.7673611111111,50400.0,1.0,1100.0,530.0,0.2,17.0
2571,55058400.0,637.25,-0.00017546000273897,0.00024242513354917999,-6.6965130810214e-05,-1.6725246666683998e-06,2.3320892075326e-06,-6.5956454086428e-07,-16.413261112712,52.482409366400994,-0.6165642701249799,1.7701388888889,50400.0,1.0,1100.0,530.0,0.2,17.0
2575,55144800.0,638.25,-0.00017564432520777,0.00024268224843867998,-6.7037923230913e-05,-1.6771377633036002e-06,2.3388228216968e-06,-6.6168505839319e-07,-16.412937612869,52.51713111776301,-0.6143903845042701,1.7729166666667,50400.0,1.0,1100.0,530.0,0.2,17.0
2579,55231200.0,639.25,-0.00017582862510551002,0.00024293931028997003,-6.7110685184464e-05,-1.6817584334344e-06,2.3455683021585e-06,-6.6380986872413e-07,-16.412643784091,52.550774761138,-0.6126810596367099,1.7756944444443998,50400.0,1.0,1100.0,530.0,0.2,17.0
2583,55317600.0,640.25,-0.00017601285166168998,0.00024319625471602003,-6.7183403054329e-05,-1.6863849878187e-06,2.3523232146288996e-06,-6.659382268101599e-07,-16.412414012101,52.581993344752,-0.61116845657579,1.7784722222222,50400.0,1.0,1100.0,530.0,0.2,17.0
2587,55404000.0,641.25,-0.00017619705512838998,0.00024345315024801,-6.7256095119624e-05,-1.6910192966218e-06,2.3590902663173e-06,-6.6807096969549e-07,-16.412139269956,52.613885758394005,-0.60978696949669,1.78125,50400.0,1.0,1100.0,530.0,0.2,17.0
2591,55490400.0,642.25,-0.00017638115612676002,0.00024370988888399998,-6.7328732757238e-05,-1.6956585001046002e-06,2.3658653201998e-06,-6.7020682009521e-07,-16.411824869453,52.650514243584006,-0.60720855679248,1.7840277777778,50400.0,1.0,1100.0,530.0,0.2,17.0
2595,55576800.0,643.25,-0.00017656523068888,0.00024396657521665,-6.7401344527772e-05,-1.7003055998596e-06,2.3726527125637997e-06,-6.723471127042e-07,-16.411537230877,52.683330366951,-0.60564873900422,1.7868055555556002,50400.0,1.0,1100.0,530.0,0.2,17.0
2599,55663200.0,644.25,-0.00017674920068425,0.00024422310673664,-6.7473906052392e-05,-1.7049578432363e-06,2.3794484522942e-06,-6.744906090579299e-07,-16.411288216554,52.712767200057,-0.60459589307421,1.7895833333333,50400.0,1.0,1100.0,530.0,0.2,17.0
2603,55749600.0,645.25,-0.00017693313845353,0.00024447957856149,-6.7546440107969e-05,-1.7096173658071001e-06,2.3862556609915e-06,-6.766382951844401e-07,-16.411042509273,52.746968544694006,-0.60253564570075,1.7923611111111,50400.0,1.0,1100.0,530.0,0.2,17.0
2607,55836000.0,646.25,-0.00017711704001731001,0.00024473599056442995,-6.7618950547125e-05,-1.7142846074515e-06,2.3930749614639e-06,-6.787903540124899e-07,-16.410719445237998,52.781325090325005,-0.6004437795283,1.7951388888889,50400.0,1.0,1100.0,530.0,0.2,17.0
2611,55922400.0,647.25,-0.00017730088584388,0.00024499230739074,-6.7691421546862e-05,-1.7189583600778998e-06,2.3999046078532e-06,-6.8094624777535e-07,-16.410481272720002,52.813665461302,-0.5988628320134399,1.7979166666667,50400.0,1.0,1100.0,530.0,0.2,17.0
2615,56008800.0,648.25,-0.00017748468111274,0.0002452485367838,-6.7763855671057e-05,-1.7236388441325e-06,2.4067449159819998e-06,-6.831060718494899e-07,-16.410154139293002,52.846394531699,-0.59712844646215,1.8006944444443997,50400.0,1.0,1100.0,530.0,0.2,17.0
2619,56095200.0,649.25,-0.00017766840515868998,0.00024550465365605,-6.7836248497354e-05,-1.7283253032146e-06,2.4135948054586003e-06,-6.852695022440601e-07,-16.409907973158,52.878785589176,-0.59558938254386,1.8034722222222,50400.0,1.0,1100.0,530.0,0.2,17.0
2623,56181600.0,650.25,-0.00017785205401411002,0.00024576064926749,-6.7908595253379e-05,-1.7330174316223e-06,2.4204538694385e-06,-6.8743643781613e-07,-16.412652229161,52.857053524598996,-0.61325156141632,1.80625,50400.0,1.0,1100.0,530.0,0.2,17.0
2627,56268000.0,651.25,-0.00017803546072572,0.00024601630284965,-6.7980842123926e-05,-1.7377103544707e-06,2.4273149813808998e-06,-6.8960462691027e-07,-16.40936181516,52.941533576009,-0.5927604948940699,1.8090277777777999,50400.0,1.0,1100.0,530.0,0.2,17.0
2631,56354400.0,652.25,-0.00017821903875605,0.00024627216502874,-6.8053126272691e-05,-1.7424173157820999e-06,2.4341973024692995e-06,-6.917799866872e-07,-16.409097964849,52.974230599485,-0.59111305193013,1.8118055555556003,50400.0,1.0,1100.0,530.0,0.2,17.0
2635,56440800.0,653.25,-0.00017840252766288,0.00024652789673546,-6.8125369072574e-05,-1.7471297648516003e-06,2.4410885068942998e-06,-6.9395874204272e-07,-16.408812353259002,53.009293972394,-0.58878955340412,1.8145833333333001,50400.0,1.0,1100.0,530.0,0.2,17.0
2639,56527200.0,654.25,-0.00017858599560933002,0.00024678357776826003,-6.8197582158929e-05,-1.7518501754141999e-06,2.447992151911e-06,-6.961419764968299e-07,-16.408557488943,53.040048942418004,-0.58756787082287,1.8173611111111,50400.0,1.0,1100.0,530.0,0.2,17.0
2643,56613600.0,655.25,-0.00017876941659635,0.0002470391787842,-6.826976218785e-05,-1.7565772083936e-06,2.4549063188472e-06,-6.9832911045368e-07,-16.408225455434998,53.075234406521,-0.58525760545703,1.8201388888889,50400.0,1.0,1100.0,530.0,0.2,17.0
2647,56700000.0,656.25,-0.00017895277250369,0.00024729466937108,-6.834189686739001e-05,-1.7613103590691003e-06,2.4618302736174e-06,-7.0051991454831e-07,-16.407955096617002,53.107527381573,-0.5836072464962501,1.8229166666667,50400.0,1.0,1100.0,530.0,0.2,17.0
2651,56786400.0,657.25,-0.00017913607189856,0.00024755007417416,-6.841400227559899e-05,-1.7660503095768002e-06,2.4687650139072998e-06,-7.027147043305199e-07,-16.407685254196,53.140237578639,-0.58185078027706,1.8256944444443999,50400.0,1.0,1100.0,530.0,0.2,17.0
2655,56872800.0,658.25,-0.00017931931402161998,0.00024780538082867,-6.8486066807056e-05,-1.7707965557945999e-06,2.4757098023113e-06,-7.0491324651676e-07,-16.4074055601,53.170861961193,-0.5806264703931999,1.8284722222222,50400.0,1.0,1100.0,530.0,0.2,17.0
2659,56959200.0,659.25,-0.00017950251579346,0.00024806061283404,-6.8558097040574e-05,-1.7755498380047001e-06,2.4826657007461e-06,-7.071158627413701e-07,-16.407128139652,53.205105243911,-0.57865424619087,1.83125,50400.0,1.0,1100.0,530.0,0.2,17.0
2663,57045600.0,660.25,-0.00017968566815916999,0.00024831576626487,-6.8630098105701e-05,-1.7803104337281002e-06,2.4896331100340002e-06,-7.093226763059e-07,-16.406886154424,53.238786402372,-0.5766098017042,1.8340277777778,50400.0,1.0,1100.0,530.0,0.2,17.0
2667,57132000.0,661.25,-0.00017986873431732,0.00024857078731264,-6.870205299532199e-05,-1.7850763983152e-06,2.4966092410909e-06,-7.1153284277569e-07,-16.40663720725,53.270693292588994,-0.57525314876052,1.8368055555556002,50400.0,1.0,1100.0,530.0,0.2,17.0
2671,57218400.0,662.25,-0.00018005172047048002,0.00024882567959572,-6.8773959125233e-05,-1.7898477802036e-06,2.503594137912e-06,-7.137463577084001e-07,-16.406328665247,53.300578524938004,-0.5739339379337199,1.8395833333333,50400.0,1.0,1100.0,530.0,0.2,17.0
2675,57304800.0,663.25,-0.00018023471482495,0.00024908057409191,-6.884585926696099e-05,-1.7946286411716e-06,2.5105937017788e-06,-7.1596506060728e-07,-16.406050586001,53.334483888864,-0.57201594815829,1.8423611111111,50400.0,1.0,1100.0,530.0,0.2,17.0
2679,57391200.0,664.25,-0.00018041761075508,0.00024933531598529,-6.8917705230207e-05,-1.7994142380275e-06,2.5176010588328e-06,-7.1818682080538e-07,-16.405847267305,53.36743829656,-0.57021665316904,1.8451388888889,50400.0,1.0,1100.0,530.0,0.2,17.0
2683,57477600.0,665.25,-0.00018060046838492,0.00024958998850439,-6.898952011947399e-05,-1.8042072069916e-06,2.5246200303337996e-06,-7.2041282334221e-07,-16.405526611865,53.394411456970005,-0.56974895871578,1.8479166666667,50400.0,1.0,1100.0,530.0,0.2,17.0
2687,57564000.0,666.25,-0.0001807832926039,0.00024984460832461,-6.9061315720711e-05,-1.8090080365387001e-06,2.5316513059869e-06,-7.2264326944818e-07,-16.405235989505,53.432535339805,-0.5667104827380899,1.8506944444443998,50400.0,1.0,1100.0,530.0,0.2,17.0
2691,57650400.0,667.25,-0.00018096604502065,0.00025009910596982996,-6.9133060949174e-05,-1.8138144045263e-06,2.5386915471602996e-06,-7.248771426339501e-07,-16.404983519023,53.466001192488,-0.5648396532791501,1.8534722222222,50400.0,1.0,1100.0,530.0,0.2,17.0
2695,57736800.0,668.25,-0.00018114876268521,0.00025035353512201,-6.9204772436801e-05,-1.8186278754076e-06,2.5457430110184e-06,-7.271151356108699e-07,-16.404692621882,53.497265291386995,-0.56336720507454,1.85625,50400.0,1.0,1100.0,530.0,0.2,17.0
2699,57823200.0,669.25,-0.00018133143239533,0.0002506078817544,-6.9276449359078e-05,-1.8234478671106999e-06,2.5528048843541e-06,-7.2935701724338e-07,-16.404432279749,53.529237215326994,-0.56173188216426,1.8590277777778,50400.0,1.0,1100.0,530.0,0.2,17.0
2703,57909600.0,670.25,-0.00018151405452149,0.00025086215313543,-6.9348098613939e-05,-1.8282751344604e-06,2.5598782304978e-06,-7.3160309603743e-07,-16.404159286673,53.560274951762,-0.56039122794979,1.8618055555556001,50400.0,1.0,1100.0,530.0,0.2,17.0
2707,57996000.0,671.25,-0.00018169662338222,0.00025111633619527996,-6.9419712813063e-05,-1.8331091990673e-06,2.5669623488983e-06,-7.3385314983098e-07,-16.403912728057,53.592651161485,-0.55870363745872,1.8645833333333,50400.0,1.0,1100.0,530.0,0.2,17.0
2711,58082400.0,672.25,-0.00018187910096341002,0.00025137038275185,-6.949128178843299e-05,-1.8379486467298e-06,2.5740552142708e-06,-7.3610656754101e-07,-16.403638723986003,53.623797250356,-0.55735692162516,1.8673611111111,50400.0,1.0,1100.0,530.0,0.2,17.0
2715,58168800.0,673.25,-0.00018206156876533002,0.00025162439524477,-6.956282647944e-05,-1.8427961752776002e-06,2.5811607196637e-06,-7.3836454438616e-07,-16.403328867622,53.657306954565,-0.5552683572875899,1.8701388888889,50400.0,1.0,1100.0,530.0,0.2,17.0
2719,58255200.0,674.25,-0.00018224399475203,0.00025187833410649,-6.963433935445501e-05,-1.8476506818758e-06,2.5882772945711004e-06,-7.406266126953e-07,-16.403061777231,53.690232042433,-0.55346547995841,1.8729166666666999,50400.0,1.0,1100.0,530.0,0.2,17.0
2723,58341600.0,675.25,-0.00018242636595743001,0.00025213217938099,-6.970581342355999e-05,-1.8525116469281003e-06,2.5954041680419e-06,-7.428925211138601e-07,-16.402797171334,53.720674948343,-0.55214048363395,1.8756944444443997,50400.0,1.0,1100.0,530.0,0.2,17.0
2727,58428000.0,676.25,-0.00018260866573304,0.00025238591768341,-6.9777251950365e-05,-1.8573789323619e-06,2.6025411299438997e-06,-7.4516219758202e-07,-16.402498386326002,53.757328021382996,-0.5495315338225499,1.8784722222222001,50400.0,1.0,1100.0,530.0,0.2,17.0
2731,58514400.0,677.25,-0.00018279093111745,0.00025263958681392,-6.984865569646899e-05,-1.8622530495169e-06,2.6096889597241e-06,-7.4743591020717e-07,-16.402247924001998,53.787574036683,-0.5482840047859,1.88125,50400.0,1.0,1100.0,530.0,0.2,17.0
2735,58600800.0,678.25,-0.00018297314669642,0.00025289317232408997,-6.9920025627667e-05,-1.8671340723487e-06,2.616847733878e-06,-7.4971366152935e-07,-16.401985768009,53.820617897870996,-0.54645842228869,1.8840277777778,50400.0,1.0,1100.0,530.0,0.2,17.0
2739,58687200.0,679.25,-0.00018315529008368998,0.00025314664705567,-6.999135697198e-05,-1.8720212331222e-06,2.6240163455691004e-06,-7.519951124469599e-07,-16.401708089523,53.851146720878,-0.54511971107065,1.8868055555556003,50400.0,1.0,1100.0,530.0,0.2,17.0
2743,58773600.0,680.25,-0.00018333741200574,0.0002534000716764,-7.006265967065601e-05,-1.8769157831222e-06,2.6311966256215e-06,-7.5428084249924e-07,-16.401426978688,53.884696152370005,-0.5430744159659501,1.8895833333333,50400.0,1.0,1100.0,530.0,0.2,17.0
2747,58860000.0,681.25,-0.00018351947085602,0.00025365339161788,-7.0133920761856e-05,-1.8818163642926998e-06,2.6383865963918e-06,-7.5657023209914e-07,-16.401222358238,53.916197768167,-0.54162912553217,1.8923611111111,50400.0,1.0,1100.0,530.0,0.2,17.0
2751,58946400.0,682.25,-0.00018370147715203,0.00025390663045985,-7.0205153307826e-05,-1.8867240846986e-06,2.645587844574e-06,-7.5886375987543e-07,-16.400900306676,53.94935797220899,-0.5397037837679199,1.8951388888889,50400.0,1.0,1100.0,530.0,0.2,17.0
2755,59032800.0,683.25,-0.00018388344597253,0.00025415979951031,-7.027635353778199e-05,-1.8916388297111e-06,2.6528002360134e-06,-7.6116140630239e-07,-16.400613518987,53.979835482072,-0.53837782220245,1.8979166666667,50400.0,1.0,1100.0,530.0,0.2,17.0
2759,59119200.0,684.25,-0.00018406536372436,0.00025441288106721,-7.0347517342851e-05,-1.8965601224173e-06,2.6600230661721e-06,-7.634629437548001e-07,-16.400328818520002,54.014041009299,-0.53627753072463,1.9006944444443998,50400.0,1.0,1100.0,530.0,0.2,17.0
2763,59205600.0,685.25,-0.00018424720259916998,0.00025466584317325,-7.041864057408599e-05,-1.9014872577775002e-06,2.6672553094669e-06,-7.6576805168941e-07,-16.400093643524002,54.044568897337,-0.5349552853883599,1.9034722222222,50400.0,1.0,1100.0,530.0,0.2,17.0
2767,59292000.0,686.25,-0.0001844290129161,0.00025491874620214,-7.0489733286041e-05,-1.9064217407932e-06,2.6744991545303e-06,-7.6807741373718e-07,-16.399822002141,54.076541956304,-0.53332353988091,1.90625,50400.0,1.0,1100.0,530.0,0.2,17.0
2771,59378400.0,687.25,-0.00018461076898389,0.00025517156116071,-7.0560792176825e-05,-1.9113628143356004e-06,2.6817535515816e-06,-7.7039073724594e-07,-16.4025684198,54.054706469082,-0.55088323942616,1.9090277777778,50400.0,1.0,1100.0,530.0,0.2,17.0
2775,59464800.0,688.25,-0.00018479227448988,0.0002554240227474,-7.0631748257527e-05,-1.9163035080226003e-06,2.6890083368185e-06,-7.7270482879594e-07,-16.399288268421,54.140136025838004,-0.53007041821221,1.9118055555556002,50400.0,1.0,1100.0,530.0,0.2,17.0
2779,59551200.0,689.25,-0.00018497394313175,0.00025567668679356,-7.070274366181701e-05,-1.9212587132955003e-06,2.6962850732262995e-06,-7.7502635993077e-07,-16.399013245544,54.165311538196,-0.52989314755045,1.9145833333333,50400.0,1.0,1100.0,530.0,0.2,17.0
2783,59637600.0,690.25,-0.00018515555408338,0.00025592925330811,-7.0773699224725e-05,-1.9262201506599e-06,2.703571805941e-06,-7.773516552810899e-07,-16.398710046508,54.201842965949,-0.52716949787317,1.9173611111111,50400.0,1.0,1100.0,530.0,0.2,17.0
2787,59724000.0,691.25,-0.00018533709238236,0.00025618171029857996,-7.0844617916225e-05,-1.931187649857e-06,2.7108682902793e-06,-7.7968064042224e-07,-16.398430030218,54.238088061087,-0.5247643093829301,1.9201388888889,50400.0,1.0,1100.0,530.0,0.2,17.0
2791,59810400.0,692.25,-0.00018551858865487,0.00025643409358652004,-7.0915504931651e-05,-1.9361620659555e-06,2.7181757562863e-06,-7.8201369033074e-07,-16.398190137786,54.269395882071,-0.5230873352659601,1.9229166666667,50400.0,1.0,1100.0,530.0,0.2,17.0
2795,59896800.0,693.25,-0.00018570007647641002,0.00025668643788377996,-7.0986361407364e-05,-1.9411440158891005e-06,2.7254951250531e-06,-7.8435110916394e-07,-16.397981739545,54.301444924905994,-0.52133821560196,1.9256944444443997,50400.0,1.0,1100.0,530.0,0.2,17.0
2799,59983200.0,694.25,-0.00018588150862141998,0.00025693869612225,-7.1057187500827e-05,-1.9461328963755e-06,2.7328254906374e-06,-7.866925942619e-07,-16.397676248505,54.324940486386005,-0.52125022554666,1.9284722222222,50400.0,1.0,1100.0,530.0,0.2,17.0
2803,60069600.0,695.25,-0.00018606286540026002,0.00025719083238908997,-7.1127966988823e-05,-1.9511271659431e-06,2.7401646739824e-06,-7.8903750803926e-07,-16.400410798238,54.310704120839006,-0.53747529005059,1.93125,50400.0,1.0,1100.0,530.0,0.2,17.0
2807,60156000.0,696.25,-0.00018624398995282,0.00025744264145671,-7.1198651503887e-05,-1.9561219002617e-06,2.7475054593846e-06,-7.9138355912283e-07,-16.397110581061,54.395786951118005,-0.51669255085583,1.9340277777777999,50400.0,1.0,1100.0,530.0,0.2,17.0
2811,60242400.0,697.25,-0.00018642527981813998,0.00025769465855414,-7.1269378736001e-05,-1.9611311349298e-06,2.7548682197241e-06,-7.937370847942701e-07,-16.396838929691,54.428504513524,-0.51487604981523,1.9368055555556003,50400.0,1.0,1100.0,530.0,0.2,17.0
2815,60328800.0,698.25,-0.00018660653501311998,0.00025794660760966,-7.134007259654e-05,-1.9661473501878996e-06,2.7622420675207997e-06,-7.960947173329199e-07,-16.396556389294,54.461916525570004,-0.5127827579522399,1.9395833333333001,50400.0,1.0,1100.0,530.0,0.2,17.0
2819,60415200.0,699.25,-0.0001867877086367,0.00025819843130842003,-7.1410722671724e-05,-1.9711691651924e-06,2.769624981533e-06,-7.984558163406e-07,-16.396361229333,54.485912576006,-0.51267068217763,1.9423611111111,50400.0,1.0,1100.0,530.0,0.2,17.0
2823,60501600.0,700.25,-0.00018696887042475,0.00025845021795096003,-7.1481347526215e-05,-1.9761988138781996e-06,2.7770202426172996e-06,-8.008214287390701e-07,-16.396078453050002,54.524255615975,-0.50991724490933,1.9451388888889,50400.0,1.0,1100.0,530.0,0.2,17.0
2827,60588000.0,701.25,-0.0001871499607273,0.00025870189263476,-7.155193190745999e-05,-1.9812345645262e-06,2.7844252838459e-06,-8.031907193197099e-07,-16.395779946284,54.555800029609,-0.50813709162399,1.9479166666667,50400.0,1.0,1100.0,530.0,0.2,17.0
2831,60674400.0,702.25,-0.0001873310153409,0.00025895350502553997,-7.1622489684635e-05,-1.9862775728151e-06,2.7918418458687002e-06,-8.0556427305368e-07,-16.395499669117,54.586230793253,-0.5068229364451801,1.9506944444443999,50400.0,1.0,1100.0,530.0,0.2,17.0
2835,60760800.0,703.25,-0.00018751203671293998,0.0002592050551571,-7.1693018444167e-05,-1.9913279412042e-06,2.7992700374242996e-06,-8.079420962201e-07,-16.395336384433,54.62025326094,-0.50464236313112,1.9534722222222,50400.0,1.0,1100.0,530.0,0.2,17.0
2839,60847200.0,704.25,-0.00018769298068872,0.00025945648590134,-7.1763505212627e-05,-1.996383852273e-06,2.8067072313265e-06,-8.1032337905348e-07,-16.394969041529,54.650113732273,-0.50343112701221,1.95625,50400.0,1.0,1100.0,530.0,0.2,17.0
2843,60933600.0,705.25,-0.00018787389277265,0.00025970785908999,-7.1833966317346e-05,-2.0014472236848997e-06,2.8141562296292002e-06,-8.127090059442899e-07,-16.39473463935,54.683479406425,-0.50138364321326,1.9590277777778,50400.0,1.0,1100.0,530.0,0.2,17.0
2847,61020000.0,706.25,-0.00018805476734126,0.00025995915694571,-7.1904389604454e-05,-2.0065173370856997e-06,2.8216159703505e-06,-8.1509863326482e-07,-16.394450919066998,54.715532600050004,-0.49968290632492995,1.9618055555556002,50400.0,1.0,1100.0,530.0,0.2,17.0
2851,61106400.0,707.25,-0.00018823560477335,0.00026021038719567003,-7.1974782422326e-05,-2.0115945757851003e-06,2.8290870211042003e-06,-8.1749244531912e-07,-16.394100971005003,54.742767986422,-0.49892991358371996,1.9645833333333,50400.0,1.0,1100.0,530.0,0.2,17.0
2855,61192800.0,708.25,-0.00018841636653327,0.00026046150693238997,-7.2045140399115e-05,-2.0166779997592e-06,2.8365679947465e-06,-8.1988999498732e-07,-16.393844890397002,54.77508766288901,-0.49727210014809003,1.9673611111111,50400.0,1.0,1100.0,530.0,0.2,17.0
2859,61279200.0,709.25,-0.00018859710930148001,0.00026071258147274,-7.2115472171255e-05,-2.0217690704043e-06,2.8440610438900002e-06,-8.2229197348579e-07,-16.393611781849998,54.811563956472,-0.49447878352407,1.9701388888889,50400.0,1.0,1100.0,530.0,0.2,17.0
2863,61365600.0,710.25,-0.00018877779446443998,0.00026096356127345,-7.2185766809012e-05,-2.0268663501966e-06,2.8515640836176003e-06,-8.2469773342102e-07,-16.393408644417,54.84340707253801,-0.49288711332163,1.9729166666667,50400.0,1.0,1100.0,530.0,0.2,17.0
2867,61452000.0,711.25,-0.00018895845320343,0.00026121448197281003,-7.2256028769389e-05,-2.0319707678402e-06,2.8590784522207995e-06,-8.271076843805601e-07,-16.393117066415,54.871559877795,-0.49194452032120006,1.9756944444443998,50400.0,1.0,1100.0,530.0,0.2,17.0
2871,61538400.0,712.25,-0.00018913904999214,0.0002614653095533,-7.2326259561162e-05,-2.037081877715e-06,2.8666034839962004e-06,-8.2952160628126e-07,-16.392877410698,54.905909716037996,-0.48965447937349,1.9784722222222,50400.0,1.0,1100.0,530.0,0.2,17.0
2875,61624800.0,713.25,-0.00018931961284515,0.00026171606902627,-7.239645618111501e-05,-2.0421998039512e-06,2.8741393951035998e-06,-8.319395911523599e-07,-16.392600495578,54.934745399155,-0.48865789682003996,1.98125,50400.0,1.0,1100.0,530.0,0.2,17.0
2879,61711200.0,714.25,-0.00018950012633138,0.00026196674943451003,-7.2466623103138e-05,-2.04732472548e-06,2.8816864210095e-06,-8.343616955295e-07,-16.392257369877,54.96988118830999,-0.4860923724081,1.9840277777778,50400.0,1.0,1100.0,530.0,0.2,17.0
2883,61797600.0,715.25,-0.00018968059258228,0.00026221734207961,-7.2536749497335e-05,-2.0524557256791998e-06,2.8892432577944e-06,-8.3678753211517e-07,-16.392057753391,55.000738531948,-0.48470993975188004,1.9868055555556001,50400.0,1.0,1100.0,530.0,0.2,17.0
2887,61884000.0,716.25,-0.00018986102291955,0.00026246787131855,-7.2606848399002e-05,-2.057594226949e-06,2.8968119442116e-06,-8.3921771726258e-07,-16.391725148136,55.031860128085,-0.48310643568675,1.9895833333333,50400.0,1.0,1100.0,530.0,0.2,17.0
2891,61970400.0,717.25,-0.00019004140868481,0.00026271832347177996,-7.2676914786978e-05,-2.0627395644442003e-06,2.9043915395827997e-06,-8.4165197513856e-07,-16.39151740859,55.06400332174599,-0.48135181802626,1.9923611111111,50400.0,1.0,1100.0,530.0,0.2,17.0
2895,62056800.0,718.25,-0.00019022174416092,0.00026296869080663,-7.2746946645717e-05,-2.0678912230556e-06,2.9119813399168e-06,-8.4409011686114e-07,-16.394255440932,55.041742507564,-0.49893302103681,1.9951388888889,50400.0,1.0,1100.0,530.0,0.2,17.0
2899,62143200.0,719.25,-0.0001904018408026,0.00026321872004819,-7.281687924558499e-05,-2.0730426117382997e-06,2.9195716864601e-06,-8.4652907472182e-07,-16.390951873961,55.1280071062,-0.4778457998125801,1.9979166666666999,50400.0,1.0,1100.0,530.0,0.2,17.0
2903,62229600.0,720.25,-0.00019058209420036998,0.00026346894272932,-7.2886848528955e-05,-2.0782083426391e-06,2.9271838072026e-06,-8.4897546456347e-07,-16.390711227184,55.157313585072,-0.47666302891879,2.0006944444443997,50400.0,1.0,1100.0,530.0,0.2,17.0
2907,62316000.0,721.25,-0.00019076229349904,0.00026371907699684,-7.2956783497808e-05,-2.083380505134e-06,2.9348062878202005e-06,-8.5142578268623e-07,-16.393455397931,55.136588969139005,-0.49389959150969,2.0034722222222,50400.0,1.0,1100.0,530.0,0.2,17.0
2911,62402400.0,722.25,-0.00019094226311363,0.00026396888181589,-7.3026618702265e-05,-2.0885523644054e-06,2.9424292871312e-06,-8.5387692272573e-07,-16.390162569672,55.218077443614,-0.47385849084832,2.00625,50400.0,1.0,1100.0,530.0,0.2,17.0
2915,62488800.0,723.25,-0.00019112238286802,0.00026421887205779,-7.3096489189769e-05,-2.0937384752545e-06,2.9500739234891004e-06,-8.5633544823463e-07,-16.389876717205,55.251149700619,-0.47180535000214,2.0090277777778,50400.0,1.0,1100.0,530.0,0.2,17.0
2919,62575200.0,724.25,-0.00019130246021926002,0.000264468791055,-7.316633083574699e-05,-2.0989315943979e-06,2.9577297214632e-06,-8.587981270653599e-07,-16.389601545978,55.284464997215004,-0.46972138380357,2.0118055555556,50400.0,1.0,1100.0,530.0,0.2,17.0
2922,62596800.0,724.5,-0.00019130246021926002,0.000264468791055,-7.316633083574699e-05,-2.0989315943979e-06,2.9577297214632e-06,-8.587981270653599e-07,0.50075622189222,76.255680542993,41.379514791704004,2.0125,90000.0,3.0,25.0,25.0,0.1,0.1
2926,62697600.0,725.66666666667,-0.00019131477833277,0.0002644832282546,-7.3168449921829e-05,-2.0992655158081003e-06,2.9582155420941e-06,-8.5895002628601e-07,-16.392654060471,55.234954391203004,-0.48827173062456,2.0157407407407,50400.0,1.0,1100.0,530.0,0.2,17.0
