,time,days,metal_creep_strain_rr,metal_creep_strain_tt,metal_creep_strain_zz,oxide_creep_strain_rr,oxide_creep_strain_tt,oxide_creep_strain_zz,oxide_stress_rr,oxide_stress_tt,oxide_stress_zz,years,dt,state,T_gas,T_steam,p_gas,p_steam
4,86400,1.0,-2.0626363116808998e-06,2.5412194926999003e-06,-4.7858318101902e-07,-6.2855027498006e-10,7.1008697097095e-10,-8.1536695990891e-11,-16.699762772211002,18.502420571688003,-2.3267460806833,0.0027777777777778,50400.0,1,1100.0,530.0,0.2,17.0
8,172800,2.0,-4.0637466202544e-06,5.001312153968e-06,-9.375655337136101e-07,-1.2630797925304e-09,1.4283087108987e-09,-1.6522891836828e-10,-16.698625436949,18.637699966503,-2.3132880635777004,0.0055555555555556,50400.0,1,1100.0,530.0,0.2,17.0
12,259200,3.0,-6.0089277213687e-06,7.3875978109033e-06,-1.3786700895346e-06,-1.9045383567952e-09,2.1554997228605e-09,-2.5096136606532e-10,-16.697473654972,18.774731818439,-2.2969488145140002,0.0083333333333333,50400.0,1,1100.0,530.0,0.2,17.0
16,345600,4.0,-7.9019270030994e-06,9.705169454405199e-06,-1.8032424513059e-06,-2.5530147812114997e-09,2.8917407196785e-09,-3.3872593846705e-10,-16.696327389194,18.911111072888,-2.280208616216,0.011111111111111,50400.0,1,1100.0,530.0,0.2,17.0
20,432000,5.0,-9.7461018575655e-06,1.1958582235844e-05,-2.2124803782782e-06,-3.2085245412391996e-09,3.6370509972462995e-09,-4.2852645600710997e-10,-16.695189330326,19.046515051763002,-2.2634506148453997,0.013888888888889,50400.0,1,1100.0,530.0,0.2,17.0
24,518400,6.0,-1.1544498810142e-05,1.4151960880592999e-05,-2.6074620704506002e-06,-3.8710699765357005e-09,4.3914394826631006e-09,-5.203695061273699e-10,-16.694059943070002,19.180887874184002,-2.2467850628194,0.016666666666667,50400.0,1,1100.0,530.0,0.2,17.0
28,604800,7.0,-1.329989483855e-05,1.6289057280138e-05,-2.9891624415871003e-06,-4.5406502867512005e-09,5.1549131676187e-09,-6.142628808674501e-10,-16.692939142693,19.314239390975,-2.2302519442118,0.019444444444444,50400.0,1,1100.0,530.0,0.2,17.0
32,691200,8.0,-1.5014829177694e-05,1.8373295079346e-05,-3.3584659016512997e-06,-5.2172643064342e-09,5.9274794143654005e-09,-7.102151079312e-10,-16.691826671996,19.446600116583,-2.213866677428,0.022222222222222,50400.0,1,1100.0,530.0,0.2,17.0
36,777600,9.0,-1.6691629883704e-05,2.0407806928934e-05,-3.7161770452303e-06,-5.9009114749345995e-09,6.709146733846801e-09,-8.082352589122099e-10,-16.690722216976,19.578007357854,-2.1976344414289,0.025,50400.0,1,1100.0,530.0,0.2,17.0
40,864000,10.0,-1.8332436592142e-05,2.2395466362531e-05,-4.0630297703886e-06,-6.591592211879699e-09,7.4999250645983e-09,-9.083328527186801e-10,-16.689625449679998,19.708500133787002,-2.1815556591002,0.027777777777778,50400.0,1,1100.0,530.0,0.2,17.0
44,950400,11.0,-1.9939220215536e-05,2.4338915341521e-05,-4.3996951259854004e-06,-7.2893080580984e-09,8.2998258557644e-09,-1.010517797666e-09,-16.688536044872,19.838117062566,-2.1656283934536003,0.030555555555556002,50400.0,1,1100.0,530.0,0.2,17.0
48,1036800,12.0,-2.151380011169e-05,2.6240588219554e-05,-4.7267881078641e-06,-7.9940617153593e-09,9.1088620679542e-09,-1.114800352595e-09,-16.687453688983,19.966895461986,-2.1498495117321,0.03333333333333299,50400.0,1,1100.0,530.0,0.2,17.0
52,1123200,13.0,-2.3057859109852e-05,2.8102732678171998e-05,-5.0448735683191e-06,-8.7058570375615e-09,9.9270481350757e-09,-1.2211910975142e-09,-16.686378083236,20.094870940076,-2.1342152726326002,0.036111111111111,50400.0,1,1100.0,530.0,0.2,17.0
56,1209600,14.0,-2.4572956722806e-05,2.9927428101302e-05,-5.354471378496201e-06,-9.424698999727199e-09,1.075439991038e-08,-1.3297009106528999e-09,-16.685308941847,20.222077360746,-2.1187216556151,0.038888888888889,50400.0,1,1100.0,530.0,0.2,17.0
60,1296000,15.0,-2.6060540797345e-05,3.1716601748277e-05,-5.6560609509321995e-06,-1.015059365576e-08,1.1590934604756e-08,-1.4403409489962e-09,-16.684245997362,20.348546691755,-2.1033645535792,0.041666666666667,50400.0,1,1100.0,530.0,0.2,17.0
64,1382400,16.0,-2.752195783301e-05,3.3472043052087e-05,-5.950085219077099e-06,-1.0883548093552e-08,1.2436670725883001e-08,-1.5531226323310002e-09,-16.683188994577,20.474309210945002,-2.0881398612002,0.044444444444444,50400.0,1,1100.0,530.0,0.2,17.0
68,1468800,17.0,-2.8958462135549e-05,3.5195416281123e-05,-6.2369541455741e-06,-1.1623570387978001e-08,1.3291628016916e-08,-1.6680576289378001e-09,-16.682137692610002,20.599393516212,-2.0730435459152,0.047222222222222,50400.0,1,1100.0,530.0,0.2,17.0
72,1555200,18.0,-3.0371223968383e-05,3.6888271795343e-05,-6.5170478269595e-06,-1.237066955547e-08,1.4155827398786002e-08,-1.785157843316e-09,-16.681091865485,20.723826596302,-2.0580716962364,0.05,50400.0,1,1100.0,530.0,0.2,17.0
76,1641600,19.0,-3.1761336814005996e-05,3.8552056057009e-05,-6.7907192430031e-06,-1.3124855507298e-08,1.5029290911214e-08,-1.9044354039159e-09,-16.680051298313998,20.847633967326,-2.0432205103108,0.05277777777777801,50400.0,1,1100.0,530.0,0.2,17.0
80,1728000,20.0,-3.3129823888678995e-05,4.0188120596472995e-05,-7.0582967077934995e-06,-1.388613900911e-08,1.5912041662887e-08,-2.0259026537769003e-09,-16.679015787622003,20.970839765675002,-2.0284863329376,0.055555555555556,50400.0,1,1100.0,530.0,0.2,17.0
84,1814400,21.0,-3.4477643964023e-05,4.1797730012291e-05,-7.3200860482677e-06,-1.4654531637856001e-08,1.68041037779e-08,-2.1495721400441004e-09,-16.677985143426,21.093466772722,-2.0138656473811,0.058333333333333,50400.0,1,1100.0,530.0,0.2,17.0
88,1900800,22.0,-3.5805696613687e-05,4.3382069169389e-05,-7.5763725557014005e-06,-1.5430045744404e-08,1.7705502350117002e-08,-2.2754566057124e-09,-16.676959184202,21.215536580086997,-1.9993550757558998,0.06111111111111099,50400.0,1,1100.0,530.0,0.2,17.0
92,1987200,23.0,-3.7114828013095e-05,4.4942250949743e-05,-7.8274229366477e-06,-1.6212694752681004e-08,1.861626378455e-08,-2.403569031869e-09,-16.67596198325,21.337176519025,-1.9849302274919,0.06388888888888901,50400.0,1,1100.0,530.0,0.2,17.0
96,2073600,24.0,-3.8405836289475e-05,4.6479323456269e-05,-8.073487166794e-06,-1.7002493382939e-08,1.9536416123692e-08,-2.5339227407527998e-09,-16.674986499558,21.458400723908998,-1.9705880529069,0.066666666666667,50400.0,1,1100.0,530.0,0.2,17.0
100,2160000,25.0,-3.9679469246527e-05,4.7994267753011e-05,-8.3147985064846e-06,-1.7799455984763997e-08,2.0465986981452e-08,-2.6665309966885e-09,-16.674010204513,21.579145850655998,-1.9563410908468,0.069444444444444,50400.0,1,1100.0,530.0,0.2,17.0
104,2246400,26.0,-4.0936432497782e-05,4.9488008393684e-05,-8.5515758959019e-06,-1.8603597702439e-08,2.1405004970433998e-08,-2.8014072679941e-09,-16.673033823401,21.699416523711,-1.9421896810435,0.072222222222222,50400.0,1,1100.0,530.0,0.2,17.0
108,2332800,27.0,-4.217743874117e-05,5.0961473710826e-05,-8.7840349696559e-06,-1.9414947240434e-08,2.2353515709757997e-08,-2.9385684693247e-09,-16.671958527681998,21.822464352504,-1.9273331845148998,0.075,50400.0,1,1100.0,530.0,0.2,17.0
112,2419200,28.0,-4.3403042770707004e-05,5.2415393609645e-05,-9.012350838938001e-06,-2.0235642694681e-08,2.3316518573354e-08,-3.0808758786732e-09,-16.671055664801,21.939574027979997,-1.9136030505348,0.077777777777778,50400.0,1,1100.0,530.0,0.2,17.0
116,2505600,29.0,-4.4613813522546e-05,5.3850518975846e-05,-9.236705453300301e-06,-2.106360639846e-08,2.4289156092217996e-08,-3.2255496937582e-09,-16.669938865925,22.055871890366998,-1.9006593305254,0.08055555555555599,50400.0,1,1100.0,530.0,0.2,17.0
120,2592000,30.0,-4.5810288755011e-05,5.5267549490427e-05,-9.4572607354161e-06,-2.1901032513114e-08,2.5276511717335e-08,-3.3754792042207004e-09,-16.669025969776,22.169316014049002,-1.8881202960531003,0.083333333333333,50400.0,1,1100.0,530.0,0.2,17.0
124,2678400,31.0,-4.6993064824815e-05,5.6667256648545994e-05,-9.674191823731e-06,-2.2745824939747997e-08,2.6273686126957997e-08,-3.5278611872090996e-09,-16.66806726334,22.286022716961998,-1.8747715772328002,0.08611111111111099,50400.0,1,1100.0,530.0,0.2,17.0
128,2764800,32.0,-4.8162688345033e-05,5.8050346956012e-05,-9.8876586109788e-06,-2.3598014407169e-08,2.7280727492712997e-08,-3.6827130855435e-09,-16.667079658633,22.404682075711,-1.8609383325512001,0.08888888888888902,50400.0,1,1100.0,530.0,0.2,17.0
132,2851200,33.0,-4.931963924248e-05,5.9417445488524e-05,-1.0097806246044001e-05,-2.445762283639e-08,2.8297675553149998e-08,-3.8400527167596e-09,-16.666057809479998,22.523571197831,-1.8470510075986002,0.091666666666667,50400.0,1,1100.0,530.0,0.2,17.0
136,2937600,34.0,-5.0464352356877e-05,6.0769118621241004e-05,-1.0304766264364999e-05,-2.5324664846567002e-08,2.9324559028262996e-08,-3.999894181695399e-09,-16.665024495785,22.640783217126998,-1.8335181552988002,0.094444444444444,50400.0,1,1100.0,530.0,0.2,17.0
140,3024000,35.0,-5.1597279413635e-05,6.2105950616509e-05,-1.0508671202874e-05,-2.6199168322473e-08,3.0361424263409e-08,-4.1622559409363e-09,-16.663959193346,22.75865447564,-1.8198071945508,0.09722222222222197,50400.0,1,1100.0,530.0,0.2,17.0
144,3110400,36.0,-5.2718836833127e-05,6.3428479996099e-05,-1.0709643162972e-05,-2.7081157088307e-08,3.1408311508357996e-08,-4.3271544200516e-09,-16.662860849498998,22.876745782119002,-1.8058879251332,0.1,50400.0,1,1100.0,530.0,0.2,17.0
148,3196800,37.0,-5.3829402990206e-05,6.473719802902e-05,-1.0907795038814e-05,-2.7970650000177e-08,3.2465255666272005e-08,-4.4946056660954e-09,-16.661742820656,22.994151245194,-1.7921573671846003,0.10277777777778,50400.0,1,1100.0,530.0,0.2,17.0
152,3283200,38.0,-5.492933659579e-05,6.603256919779799e-05,-1.1103232602008e-05,-2.8867661487355e-08,3.3532282418698004e-08,-4.6646209313432e-09,-16.660584039017998,23.109151929153,-1.7788632832541,0.10555555555556,50400.0,1,1100.0,530.0,0.2,17.0
156,3369600,39.0,-5.601898313996801e-05,6.731504367388199e-05,-1.1296060533915e-05,-2.9772212776733e-08,3.4609432003586e-08,-4.8372192268535e-09,-16.659420786531,23.224025983293,-1.7655657066391999,0.10833333333333,50400.0,1,1100.0,530.0,0.2,17.0
160,3456000,40.0,-5.7098742829917004e-05,6.858513173137099e-05,-1.1486388901455e-05,-3.0684346531702e-08,3.5696769468921e-08,-5.012422937219e-09,-16.658752925738,23.341507457525,-1.7524474920503,0.11111111111111001,50400.0,1,1100.0,530.0,0.2,17.0
164,3542400,41.0,-5.8168913849441e-05,6.98432191635e-05,-1.1674305314060001e-05,-3.1604079073079003e-08,3.6794324778438e-08,-5.1902457053592e-09,-16.657691972454,23.457681338377,-1.7390447295848999,0.11388888888889,50400.0,1,1100.0,530.0,0.2,17.0
168,3628800,42.0,-5.9229731960372e-05,7.1089616209767e-05,-1.1859884249396001e-05,-3.2531401504442e-08,3.7902091495375e-08,-5.3706899909334e-09,-16.656682718951,23.568124495449,-1.7269890517666,0.11666666666667,50400.0,1,1100.0,530.0,0.2,17.0
172,3715200,43.0,-6.0281589007239e-05,7.2324816246807e-05,-1.2043227239568e-05,-3.3466387160727993e-08,3.9020183313722e-08,-5.5537961529938e-09,-16.655598584408,23.684483612123,-1.7133721600648,0.11944444444444001,50400.0,1,1100.0,530.0,0.2,17.0
176,3801600,44.0,-6.132476798243001e-05,7.3549188858362e-05,-1.2224420875932001e-05,-3.4409049044961e-08,4.0148623373177e-08,-5.739574328216201e-09,-16.654499818170002,23.801251665382,-1.6997086091211,0.12222222222222,50400.0,1,1100.0,530.0,0.2,17.0
180,3888000,45.0,-6.2359486138089e-05,7.4763014309102e-05,-1.2403528171013e-05,-3.5359393833966e-08,4.1287428361607e-08,-5.9280345276402e-09,-16.653441484538,23.913222948941,-1.6870342455586,0.125,50400.0,1,1100.0,530.0,0.2,17.0
184,3974400,46.0,-6.3386033226761e-05,7.596666262191099e-05,-1.258062939515e-05,-3.6317456415711005e-08,4.2436653130398e-08,-6.1191967146869995e-09,-16.652374650914,24.027459162856,-1.6739199352078997,0.12777777777778,50400.0,1,1100.0,530.0,0.2,17.0
188,4060800,47.0,-6.4404636622581e-05,7.716042740004599e-05,-1.2755790777465e-05,-3.7283255941447e-08,4.3596333346875e-08,-6.3130774054276e-09,-16.651344385491,24.139823025588,-1.6612759079091999,0.13055555555556,50400.0,1,1100.0,530.0,0.2,17.0
192,4147200,48.0,-6.541554089496099e-05,7.834462181661e-05,-1.2929080921648e-05,-3.8256818662572e-08,4.476651210370401e-08,-6.509693441131999e-09,-16.65034063388,24.251727337601,-1.6487778289449,0.13333333333333,50400.0,1,1100.0,530.0,0.2,17.0
196,4233600,49.0,-6.6418972168885e-05,7.951953578779699e-05,-1.3100563618911999e-05,-3.9238169110388e-08,4.5947230929171e-08,-6.7090618187829e-09,-16.649357795621,24.363238299739,-1.6363883481987,0.13611111111111,50400.0,1,1100.0,530.0,0.2,17.0
200,4320000,50.0,-6.7415152737354e-05,8.068545384021601e-05,-1.3270301102861e-05,-4.0227334783377006e-08,4.7138535535977994e-08,-6.9112007526016e-09,-16.648371032783,24.474788792712,-1.6240019904319998,0.13888888888889,50400.0,1,1100.0,530.0,0.2,17.0
204,4406400,51.0,-6.840427731150601e-05,8.1842626638916e-05,-1.343834932741e-05,-4.1224338896901e-08,4.8340466272362e-08,-7.116127375460799e-09,-16.647415229186002,24.585220427775997,-1.6119303777041,0.14166666666667002,50400.0,1,1100.0,530.0,0.2,17.0
208,4492800,52.0,-6.9386574387909e-05,8.2991341883869e-05,-1.3604767495961e-05,-4.2229214834119e-08,4.9553074617660995e-08,-7.323859783542199e-09,-16.64643426999,24.696674545534,-1.5995863088105,0.14444444444444002,50400.0,1,1100.0,530.0,0.2,17.0
212,4579200,53.0,-7.0362238491388e-05,8.4131850025544e-05,-1.3769611534157001e-05,-4.3241989687173e-08,5.0776407097028e-08,-7.5344174098552e-09,-16.645462122113,24.808036505632,-1.5872707924813998,0.14722222222222,50400.0,1,1100.0,530.0,0.2,17.0
216,4665600,54.0,-7.1331439437377e-05,8.5264369487804e-05,-1.3932930050426999e-05,-4.4262682972809004e-08,5.2010498439381e-08,-7.7478154665716e-09,-16.644507491468,24.917545379934,-1.5754234191699,0.15,50400.0,1,1100.0,530.0,0.2,17.0
220,4752000,55.0,-7.2294390177576e-05,8.6389169135917e-05,-1.4094778958341e-05,-4.529133630365599e-08,5.325541332532e-08,-7.9640770216649e-09,-16.64354533761,25.029561982666998,-1.5629596157043002,0.15277777777777998,50400.0,1,1100.0,530.0,0.2,17.0
224,4838400,56.0,-7.3251224543505e-05,8.7506425641862e-05,-1.4255201098357001e-05,-4.6327959228609004e-08,5.4511174859618e-08,-8.1832156310094e-09,-16.64260196412,25.138588819678002,-1.5512402608934999,0.15555555555556,50400.0,1,1100.0,530.0,0.2,17.0
228,4924800,57.0,-7.4202145562934e-05,8.8616391981458e-05,-1.4414246418524e-05,-4.737259452998099e-08,5.5777846683909e-08,-8.4052521539289e-09,-16.641652380153,25.249836565912,-1.5389724954753,0.15833333333333,50400.0,1,1100.0,530.0,0.2,17.0
232,5011200,58.0,-7.5147369136489e-05,8.9719343254521e-05,-1.4571974118032999e-05,-4.8425295465985994e-08,5.7055511654259e-08,-8.630216188272901e-09,-16.641290779385,25.365387882837,-1.5274954416891,0.16111111111110998,50400.0,1,1100.0,530.0,0.2,17.0
236,5097600,59.0,-7.6086984269191e-05,9.0815392929324e-05,-1.4728408660133e-05,-4.9486063367892006e-08,5.8344178632482996e-08,-8.8581152645904e-09,-16.640309804844,25.475469023543,-1.5154571384261,0.16388888888889003,50400.0,1,1100.0,530.0,0.2,17.0
240,5184000,60.0,-7.7021170921865e-05,9.190476736507801e-05,-1.4883596443213e-05,-5.0554936721195e-08,5.9643905666763e-08,-9.088968945567199e-09,-16.639321417995998,25.587774062020003,-1.5028535161029,0.16666666666667002,50400.0,1,1100.0,530.0,0.2,17.0
244,5270400,61.0,-7.7950026117204e-05,9.2987593547822e-05,-1.5037567430617999e-05,-5.1631925967914006e-08,6.095471685369099e-08,-9.322790885777099e-09,-16.638365684073,25.696051677838998,-1.4912559560292,0.16944444444444,50400.0,1,1100.0,530.0,0.2,17.0
248,5356800,62.0,-7.8873681953479e-05,9.4064039758246e-05,-1.5190357804767001e-05,-5.271705863359201e-08,6.2276659106087e-08,-9.559600472495e-09,-16.637418089646,25.803806068739,-1.4798007997891998,0.17222222222222,50400.0,1,1100.0,530.0,0.2,17.0
252,5443200,63.0,-7.9792315046762e-05,9.5134326758147e-05,-1.5342011711385e-05,-5.3810380359590995e-08,6.3609800636398e-08,-9.799420276807e-09,-16.636390100586,25.914447727505003,-1.4675672866624998,0.175,50400.0,1,1100.0,530.0,0.2,17.0
256,5529600,64.0,-8.0706039098548e-05,9.61985971872e-05,-1.5492558088652e-05,-5.4911915263547e-08,6.495418145747599e-08,-1.0042266193929001e-08,-16.635336942022,26.023560867207,-1.4555646709119,0.17777777777778,50400.0,1,1100.0,530.0,0.2,17.0
260,5616000,65.0,-8.161495486807801e-05,9.725698573275201e-05,-1.5642030864674e-05,-5.6021680842795004e-08,6.630983763317999e-08,-1.0288156790385001e-08,-16.634375199616002,26.130805068249998,-1.4441650088383,0.18055555555556,50400.0,1,1100.0,530.0,0.2,17.0
264,5702400,66.0,-8.2519181608836e-05,9.830964117701e-05,-1.5790459568174e-05,-5.7139707554745994e-08,6.7676818031428e-08,-1.0537110476682e-08,-16.633450880864,26.237299086738,-1.4330130224978999,0.18333333333332996,50400.0,1,1100.0,530.0,0.2,17.0
268,5788800,67.0,-8.3418909938124e-05,9.935679935405501e-05,-1.5937889415931e-05,-5.8266056917425003e-08,6.905521218474401e-08,-1.078915526732e-08,-16.632487796613,26.349930098265,-1.4204293125689,0.18611111111111,50400.0,1,1100.0,530.0,0.2,17.0
272,5875200,68.0,-8.4314084041763e-05,0.00010039840233403001,-1.6084318292269e-05,-5.9400683547649005e-08,7.0444970957986e-08,-1.1044287410337e-08,-16.631640922040997,26.447888659101,-1.4113866561183999,0.18888888888889,50400.0,1,1100.0,530.0,0.2,17.0
276,5961600,69.0,-8.520487660393399e-05,0.00010143466356635,-1.6229786962417002e-05,-6.0543655154155e-08,7.1846197091064e-08,-1.130254193691e-08,-16.630701972407,26.551827493143,-1.4009264143693,0.19166666666667004,50400.0,1,1100.0,530.0,0.2,17.0
280,6048000,70.0,-8.609129414176899e-05,0.00010246559889961,-1.6374304757839e-05,-6.1694954627183e-08,7.325887849058301e-08,-1.15639238634e-08,-16.629827553944,26.646626737385997,-1.3927694905288002,0.19444444444444,50400.0,1,1100.0,530.0,0.2,17.0
284,6134400,71.0,-8.6973672801004e-05,0.00010349161669141999,-1.6517943890419e-05,-6.2854696490175e-08,7.468316215746e-08,-1.1828465667285e-08,-16.628863812172,26.761007068403,-1.3796898788655,0.19722222222222,50400.0,1,1100.0,530.0,0.2,17.0
288,6220800,72.0,-8.785198047218e-05,0.00010451268508909,-1.6660704616908e-05,-6.4022869736538e-08,7.611905517883401e-08,-1.2096185442296002e-08,-16.628001213909,26.863801123074,-1.3695800822058999,0.2,50400.0,1,1100.0,530.0,0.2,17.0
292,6307200,73.0,-8.8726611592356e-05,0.00010552928711874,-1.6802675526381e-05,-6.519962378771799e-08,7.7566761482073e-08,-1.2367137694355e-08,-16.630183523208,26.988305749082,-1.3591653878018999,0.20277777777778,50400.0,1,1100.0,530.0,0.2,17.0
296,6393600,74.0,-8.9597197292978e-05,0.00010654097530401999,-1.6943778011044e-05,-6.6384793932057e-08,7.9026062187623e-08,-1.2641268255566002e-08,-16.626153547418,27.081619477094,-1.346196740443,0.20555555555556,50400.0,1,1100.0,530.0,0.2,17.0
300,6480000,75.0,-9.046436849044499e-05,0.00010754851378183001,-1.7084145291384e-05,-6.757866910557199e-08,8.049736028297e-08,-1.2918691177398e-08,-16.625123073624,27.215664511984,-1.3283802571912,0.20833333333332996,50400.0,1,1100.0,530.0,0.2,17.0
304,6566400,76.0,-9.132795512066801e-05,0.00010855170814899998,-1.722375302833e-05,-6.8781135435086e-08,8.198050108233499e-08,-1.3199365647248999e-08,-16.62412199406,27.330235404097,-1.3153298771858,0.21111111111111,50400.0,1,1100.0,530.0,0.2,17.0
308,6652800,77.0,-9.2188059022013e-05,0.00010955068587594001,-1.7362626853931e-05,-6.999223149740599e-08,8.3475541630927e-08,-1.3483310133521e-08,-16.623165877931,27.444477418633,-1.3024174488018998,0.21388888888889,50400.0,1,1100.0,530.0,0.2,17.0
312,6739200,78.0,-9.304442179068101e-05,0.00011054515026071001,-1.7500728470026002e-05,-7.121185352248699e-08,8.498238594893401e-08,-1.3770532426446999e-08,-16.625674096285,27.525591287959,-1.3027208764825,0.21666666666667003,50400.0,1,1100.0,530.0,0.2,17.0
316,6825600,79.0,-9.3897623948679e-05,0.00011153578567163,-1.7638161722956e-05,-7.244025980447e-08,8.650135149092799e-08,-1.4061091686458e-08,-16.621764317445,27.657470808503,-1.281028961663,0.21944444444444,50400.0,1,1100.0,530.0,0.2,17.0
320,6912000,80.0,-9.4747546581251e-05,0.00011252246356698,-1.777491698573e-05,-7.3677404180419e-08,8.8032408737331e-08,-1.4355004556911e-08,-16.620798528011,27.76955445184,-1.2688875810147,0.22222222222222002,50400.0,1,1100.0,530.0,0.2,17.0
324,6998400,81.0,-9.559422967819899e-05,0.00011350523364553999,-1.7911003967337e-05,-7.4923295464943e-08,8.957557184060401e-08,-1.4652276375661001e-08,-16.619836520562,27.878226139794997,-1.2572323927726001,0.225,50400.0,1,1100.0,530.0,0.2,17.0
328,7084800,82.0,-9.6437670901771e-05,0.00011448409808546001,-1.8046427183693e-05,-7.617792922659099e-08,9.1130846660962e-08,-1.4952917434371e-08,-16.618988931126,27.979642495996,-1.247385671982,0.22777777777778,50400.0,1,1100.0,530.0,0.2,17.0
332,7171200,83.0,-9.7278010041158e-05,0.00011545922705993999,-1.8181217018787e-05,-7.744137901797e-08,9.2698343349768e-08,-1.5256964331798e-08,-16.618067067187,28.087314194896997,-1.2360097000858998,0.23055555555555998,50400.0,1,1100.0,530.0,0.2,17.0
336,7257600,84.0,-9.811522212699e-05,0.00011643059618411001,-1.8315374057123e-05,-7.8713618162287e-08,9.4278031968749e-08,-1.5564413806462e-08,-16.617221604239,28.185931124635,-1.2268356973833998,0.23333333333332998,50400.0,1,1100.0,530.0,0.2,17.0
340,7344000,85.0,-9.8949470855251e-05,0.00011739840364896,-1.8448932793711e-05,-7.9994740404578e-08,9.587005088322699e-08,-1.5875310478649e-08,-16.616308746327,28.293509424954,-1.2154983685631,0.23611111111111,50400.0,1,1100.0,530.0,0.2,17.0
344,7430400,86.0,-9.9780823443686e-05,0.00011836273473108999,-1.8581911287402e-05,-8.1284772060292e-08,9.747443995652599e-08,-1.6189667896234e-08,-16.615353370312,28.401737143864,-1.2041906658159,0.23888888888889,50400.0,1,1100.0,530.0,0.2,17.0
348,7516800,87.0,-0.00010060935330063,0.0001193236794182,-1.8714326117564e-05,-8.2583750556018e-08,9.9091257842832e-08,-1.6507507286813998e-08,-16.614487152978,28.510047370623003,-1.192481259646,0.24166666666667003,50400.0,1,1100.0,530.0,0.2,17.0
352,7603200,88.0,-0.00010143506650398001,0.00012028124703563999,-1.884618053166e-05,-8.3891690373616e-08,1.0072053640392999e-07,-1.6828846030311e-08,-16.613584475777,28.613951461436,-1.1820204629172,0.24444444444444,50400.0,1,1100.0,530.0,0.2,17.0
356,7689600,89.0,-0.00010225799820427,0.00012123548468971001,-1.8977486485439e-05,-8.5208602218996e-08,1.0236229555947e-07,-1.7153693340473e-08,-16.612602992718,28.715577672999,-1.171740086896,0.24722222222222,50400.0,1,1100.0,530.0,0.2,17.0
360,7776000,90.0,-0.00010307825435701999,0.00012218652184863,-1.9108267491604002e-05,-8.6534553081565e-08,1.0401663998164001e-07,-1.7482086900078e-08,-16.611661330958,28.820977731934,-1.1608395501953,0.25,50400.0,1,1100.0,530.0,0.2,17.0
364,7862400,91.0,-0.00010389590053265,0.00012313444056105,-1.9238540028395002e-05,-8.786957468363e-08,1.0568361739025e-07,-1.7814042706622e-08,-16.610751348143,28.927364571026,-1.1497628066486,0.25277777777778,50400.0,1,1100.0,530.0,0.2,17.0
368,7948800,92.0,-0.00010471095730975,0.00012407926903681,-1.9368311727056e-05,-8.921368148752699e-08,1.0736325477651e-07,-1.8149573288978002e-08,-16.609912611177002,29.031127293038,-1.1393155207703998,0.25555555555556,50400.0,1,1100.0,530.0,0.2,17.0
372,8035200,93.0,-0.00010552353064976,0.00012502113566498002,-1.9497605015217003e-05,-9.056694171585599e-08,1.0905565722139001e-07,-1.8488715505537e-08,-16.608987811463003,29.138951669843998,-1.1279227735051,0.25833333333333,50400.0,1,1100.0,530.0,0.2,17.0
376,8121600,94.0,-0.0001063336414595,0.00012596006883621,-1.9626427376707e-05,-9.192936658426e-08,1.1076084436629e-07,-1.8831477782035e-08,-16.608050208462,29.244596783804997,-1.1169786033758,0.26111111111111,50400.0,1,1100.0,530.0,0.2,17.0
380,8208000,95.0,-0.000107141323869,0.00012689611178941002,-1.9754787920413e-05,-9.3300987696378e-08,1.1247887384742e-07,-1.9177886151046e-08,-16.60714847385,29.347937545611,-1.1067252322891001,0.26388888888889,50400.0,1,1100.0,530.0,0.2,17.0
384,8294400,96.0,-0.00010794663495155,0.00012782933604338999,-1.9882701091844e-05,-9.468183174314099e-08,1.1420978387580001e-07,-1.9527952132661998e-08,-16.60626972505,29.452383694878996,-1.0961522829069001,0.26666666666667005,50400.0,1,1100.0,530.0,0.2,17.0
388,8380800,97.0,-0.00010874962982696,0.00012875980901621,-2.0010179189251998e-05,-9.6071951420612e-08,1.159536605375e-07,-1.9881709116883998e-08,-16.605365506076,29.557695894211,-1.0853646197131999,0.26944444444444,50400.0,1,1100.0,530.0,0.2,17.0
392,8467200,98.0,-0.00010955038390261,0.00012968762299216,-2.0137239089554e-05,-9.747139207370401e-08,1.1771057224459e-07,-2.0239180170885e-08,-16.604461381127,29.665092909899997,-1.0740681526719,0.27222222222222,50400.0,1,1100.0,530.0,0.2,17.0
396,8553600,99.0,-0.00011034888205792,0.00013061276354441002,-2.0263881486499e-05,-9.888015003124801e-08,1.1948052186505002e-07,-2.0600371833806003e-08,-16.603595710666,29.767129055973,-1.0640991362571999,0.275,50400.0,1,1100.0,530.0,0.2,17.0
400,8640000,100.0,-0.00011114518315089,0.00013153530230475,-2.0390119153854002e-05,-1.0029826896926e-07,1.2126357863952e-07,-2.0965309670256002e-08,-16.602725958106,29.87008298041,-1.0538588049938,0.27777777777778,50400.0,1,1100.0,530.0,0.2,17.0
404,8726400,101.0,-0.00011193936351131999,0.00013245533262491,-2.0515969113587e-05,-1.0172580224524e-07,1.2305982177468e-07,-2.1334019529438e-08,-16.601831798888,29.976516315514,-1.0428161980354,0.28055555555556,50400.0,1,1100.0,530.0,0.2,17.0
408,8812800,102.0,-0.00011273131102029,0.00013337272975543998,-2.0641418735157e-05,-1.0316269360842e-07,1.2486919907112e-07,-2.17065054627e-08,-16.604337099196,30.064119774557,-1.0413953364671,0.28333333333333,50400.0,1,1100.0,530.0,0.2,17.0
412,8899200,103.0,-0.00011352133800318998,0.00013428785469081,-2.0766516687615e-05,-1.0460913778795e-07,1.2669195504509e-07,-2.2082817257133998e-08,-16.600082560452,30.185065253477998,-1.0217325451141999,0.28611111111111,50400.0,1,1100.0,530.0,0.2,17.0
416,8985600,104.0,-0.00011430921106993,0.00013520044484288,-2.0891233772942e-05,-1.0606500461921001e-07,1.2852794841682e-07,-2.2462943797603e-08,-16.602581210383,30.273007532809,-1.0202368731079001,0.28888888888888997,50400.0,1,1100.0,530.0,0.2,17.0
420,9072000,105.0,-0.00011509523832501,0.00013611085490542,-2.1015616580414002e-05,-1.075304997342e-07,1.3037744464875e-07,-2.2846944914542e-08,-16.598349906301,30.393333833379003,-1.0006667857593,0.29166666666667,50400.0,1,1100.0,530.0,0.2,17.0
424,9158400,106.0,-0.00011587931336062,0.00013701896760126,-2.1139654240631e-05,-1.0900556220492001e-07,1.3224037839398998e-07,-2.3234816189075e-08,-16.597440423439,30.497067724106998,-0.9902472110362099,0.29444444444444,50400.0,1,1100.0,530.0,0.2,17.0
428,9244800,107.0,-0.00011666135597906,0.00013792469597727,-2.1263339998206e-05,-1.1049016154509001e-07,1.3411673318652e-07,-2.3626571641432997e-08,-16.599953364599,30.585660219961,-0.9886528136561,0.29722222222221995,50400.0,1,1100.0,530.0,0.2,17.0
432,9331200,108.0,-0.00011744167428053,0.00013882839519927,-2.1386720918742998e-05,-1.1198449763781e-07,1.3600676056549e-07,-2.4022262927679e-08,-16.59565530993,30.707689706369,-0.9686779311796999,0.3,50400.0,1,1100.0,530.0,0.2,17.0
436,9417600,109.0,-0.00011822000808683998,0.00013972977054908998,-2.150976246225e-05,-1.1348842148648e-07,1.3791029555654e-07,-2.4421874070066e-08,-16.598204756122,30.793663506889,-0.96769461807179,0.30277777777778003,50400.0,1,1100.0,530.0,0.2,17.0
440,9504000,110.0,-0.00011899670346888999,0.00014062922237063,-2.1632518901742e-05,-1.1500216381075001e-07,1.3982763306181e-07,-2.4825469251056e-08,-16.59389917496,30.916854390457,-0.94748652585771,0.30555555555555997,50400.0,1,1100.0,530.0,0.2,17.0
444,9590400,111.0,-0.00011977161928666999,0.00014152659043877,-2.1754971152101e-05,-1.1652565354769001e-07,1.4175869986847001e-07,-2.5233046320786e-08,-16.593046912389998,31.019832158392,-0.9372307056764799,0.30833333333333,50400.0,1,1100.0,530.0,0.2,17.0
448,9676800,112.0,-0.00012054480145277,0.00014242193174441,-2.1877130291633e-05,-1.1805893368864e-07,1.4370356145583e-07,-2.5644627767192005e-08,-16.592177432153,31.124727449269,-0.92651595531591,0.31111111111111,50400.0,1,1100.0,530.0,0.2,17.0
452,9763200,113.0,-0.00012131629299777,0.00014331530013043998,-2.1999007132667003e-05,-1.1960205146837e-07,1.4566229395351e-07,-2.6060242485147002e-08,-16.591349475572,31.230608454200002,-0.9162690999481501,0.31388888888889,50400.0,1,1100.0,530.0,0.2,17.0
456,9849600,114.0,-0.00012208609508589,0.0001442066966324,-2.21206015465e-05,-1.2115502305154e-07,1.4763492810381e-07,-2.6479905052270002e-08,-16.590447626642998,31.333171510655,-0.90611969703647,0.31666666666667,50400.0,1,1100.0,530.0,0.2,17.0
460,9936000,115.0,-0.00012285426050364,0.00014509618649351,-2.2241925989872e-05,-1.2271789477461e-07,1.4962153215508002e-07,-2.6903637380467004e-08,-16.589547021048,31.438665573748,-0.89529995183715,0.31944444444444003,50400.0,1,1100.0,530.0,0.2,17.0
464,10022400,116.0,-0.00012362080277275,0.00014598378659856,-2.236298382581e-05,-1.242906924834e-07,1.5162215237763e-07,-2.7331459894230003e-08,-16.588676385374,31.541770150448,-0.88499894994702,0.32222222222221997,50400.0,1,1100.0,530.0,0.2,17.0
468,10108800,117.0,-0.00012438576535721,0.00014686954941333998,-2.2483784056132998e-05,-1.2587346781205001e-07,1.5363686851954e-07,-2.7763400707491e-08,-16.587779260654,31.646677176199997,-0.8743346576526501,0.325,50400.0,1,1100.0,530.0,0.2,17.0
472,10195200,118.0,-0.00012514914546138,0.00014775347294987,-2.2604327488494e-05,-1.2746622626772002e-07,1.5566569658662e-07,-2.8199470318894e-08,-16.586960847335998,31.747562097095,-0.8645609248023001,0.32777777777778005,50400.0,1,1100.0,530.0,0.2,17.0
476,10281600,119.0,-0.00012591098673878,0.00014863561034109,-2.2724623602312e-05,-1.2906902293929e-07,1.5770872185965e-07,-2.8639698920365e-08,-16.586088970056,31.850741188506998,-0.8542548230065801,0.33055555555556,50400.0,1,1100.0,530.0,0.2,17.0
480,10368000,120.0,-0.00012667131377918001,0.00014951599244221,-2.2844678663025e-05,-1.3068189166414e-07,1.5976599932632e-07,-2.908410766219e-08,-16.585180440486,31.953860538423,-0.8439110843268399,0.33333333333333,50400.0,1,1100.0,530.0,0.2,17.0
484,10454400,121.0,-0.00012743020041964,0.0001503947081524,-2.2964507732755e-05,-1.3230489839674e-07,1.6183762407782e-07,-2.9532725681085004e-08,-16.584260833624,32.061662117691,-0.8324518176203499,0.33611111111111003,50400.0,1,1100.0,530.0,0.2,17.0
488,10540800,122.0,-0.00012818765596203,0.0001512717695132,-2.3084113551172e-05,-1.3393805896124e-07,1.6392362455007e-07,-2.998556558883e-08,-16.583393726413,32.167259426284,-0.8215400681922901,0.33888888888889,50400.0,1,1100.0,530.0,0.2,17.0
492,10627200,123.0,-0.00012894366561697,0.00015214716030651,-2.320349468954e-05,-1.3558139358332e-07,1.6602404099995e-07,-3.0442647416632e-08,-16.582524402744998,32.269759167592,-0.81137062613453,0.34166666666667,50400.0,1,1100.0,530.0,0.2,17.0
496,10713600,124.0,-0.00012969829329356002,0.00015302095625385,-2.332266296029e-05,-1.3723496448693e-07,1.6813896723947e-07,-3.0904002752547994e-08,-16.581721317638,32.375893926073,-0.8002869355633001,0.34444444444444,50400.0,1,1100.0,530.0,0.2,17.0
500,10800000,125.0,-0.00013045151640838,0.00015389313248523,-2.3441616076855e-05,-1.3889876549200001e-07,1.7026839865565e-07,-3.1369633163656004e-08,-16.580873856365,32.477784188067005,-0.7900866959710899,0.34722222222222,50400.0,1,1100.0,530.0,0.2,17.0
504,10886400,126.0,-0.00013120336612125,0.00015476372659742,-2.3560360476164002e-05,-1.4057285364117e-07,1.7241242862570002e-07,-3.1839574984522e-08,-16.5800409317,32.580304618863,-0.7798928202089201,0.35,50400.0,1,1100.0,530.0,0.2,17.0
508,10972800,127.0,-0.0001319538556146,0.00015563275480516,-2.3678899190564e-05,-1.4225725910523e-07,1.7457110745979e-07,-3.2313848354558e-08,-16.579261623411,32.681316484074,-0.76995559715812,0.35277777777778,50400.0,1,1100.0,530.0,0.2,17.0
512,11059200,128.0,-0.00013270275113743998,0.00015649994766375,-2.3797196526309e-05,-1.4395184197982e-07,1.7674427140932e-07,-3.27924294295e-08,-16.581735193171,32.753804901008,-0.77205207413902,0.35555555555556,50400.0,1,1100.0,530.0,0.2,17.0
516,11145600,129.0,-0.00013345061822684,0.00015736596385877,-2.3915345631921e-05,-1.4565701211372e-07,1.789324547196e-07,-3.3275442605883e-08,-16.577579412008,32.886689821779,-0.74941688915418,0.35833333333333,50400.0,1,1100.0,530.0,0.2,17.0
520,11232000,130.0,-0.00013419692435835,0.00015823018639342,-2.4033262035066e-05,-1.4737242270374e-07,1.8113522680158999e-07,-3.3762804097859e-08,-16.580013473866,32.958537268143,-0.75179403584759,0.36111111111111,50400.0,1,1100.0,530.0,0.2,17.0
524,11318400,131.0,-0.00013494197046277,0.00015909296567165,-2.4150995208870003e-05,-1.4909831183028e-07,1.8335290917446002e-07,-3.4254597344178e-08,-16.579154690712,33.060781361005,-0.7416900601114,0.36388888888889,50400.0,1,1100.0,530.0,0.2,17.0
528,11404800,132.0,-0.00013568577271021,0.00015995432309021002,-2.4268550379994e-05,-1.5083469506897e-07,1.8558552340328e-07,-3.4750828334311e-08,-16.578295572948,33.16297764632,-0.73159430247011,0.36666666666666997,50400.0,1,1100.0,530.0,0.2,17.0
532,11491200,133.0,-0.0001364283515093,0.00016081428277582,-2.4385931266523e-05,-1.5258162063202e-07,1.8783314950186998e-07,-3.5251528869855e-08,-16.577436853457,33.265098734314996,-0.72151411345879,0.36944444444444,50400.0,1,1100.0,530.0,0.2,17.0
536,11577600,134.0,-0.00013716972626143,0.00016167286892658001,-2.450314266515e-05,-1.5433912075559e-07,1.9009583844236e-07,-3.5756717686772004e-08,-16.576579224125,33.367157344512,-0.7114468559036701,0.37222222222222,50400.0,1,1100.0,530.0,0.2,17.0
540,11664000,135.0,-0.00013791020231609,0.00016253043935508002,-2.4620237038992003e-05,-1.5610744109553e-07,1.9237391805828e-07,-3.6266476962749e-08,-16.572384344721,33.502119491738,-0.68872202090158,0.375,50400.0,1,1100.0,530.0,0.2,17.0
544,11750400,136.0,-0.00013864949598048001,0.00016338666195286002,-2.4737165972381e-05,-1.5788640463214e-07,1.9466717319870998e-07,-3.6780768566562004e-08,-16.571563774006,33.603829168222,-0.6785963869225301,0.37777777777778,50400.0,1,1100.0,530.0,0.2,17.0
548,11836800,137.0,-0.00013938734719863,0.00016424123506643,-2.4853887867804998e-05,-1.5967585570378002e-07,1.9697542092198998e-07,-3.7299565218209e-08,-16.574008474078,33.67293590987,-0.68132114824697,0.38055555555556,50400.0,1,1100.0,530.0,0.2,17.0
552,11923200,138.0,-0.00014012433820135,0.00016509483823335,-2.4970500032003e-05,-1.6147623677866002e-07,1.9929924037675e-07,-3.782300359809e-08,-16.569981505283998,33.805082271464,-0.6589082522401899,0.38333333333333003,50400.0,1,1100.0,530.0,0.2,17.0
556,12009600,139.0,-0.00014086014935908,0.00016594709957067,-2.5086950211597e-05,-1.6328733512446e-07,2.0163836329317998e-07,-3.8351028168723e-08,-16.569103661299,33.901814403446004,-0.65002091302303,0.38611111111111,50400.0,1,1100.0,530.0,0.2,17.0
560,12096000,140.0,-0.00014159494610163,0.00016679821642918,-2.5203270327545002e-05,-1.6510930594774e-07,2.0399301501057e-07,-3.8883709062834e-08,-16.568215946803,34.012231190658,-0.63825665166869,0.38888888888889,50400.0,1,1100.0,530.0,0.2,17.0
564,12182400,141.0,-0.00014232865540424,0.00016764810209609,-2.5319446691848e-05,-1.6694209639855e-07,2.0636312378932e-07,-3.9421027390767e-08,-16.567360882509,34.114109688543,-0.6282456603081501,0.39166666666667,50400.0,1,1100.0,530.0,0.2,17.0
568,12268800,142.0,-0.00014306124594829,0.00016849671969033998,-2.5435473742054e-05,-1.6878573310609e-07,2.0874874291700002e-07,-3.996300981091e-08,-16.566497066554998,34.211425227967,-0.61912228318896,0.39444444444444,50400.0,1,1100.0,530.0,0.2,17.0
572,12355200,143.0,-0.00014379277415542,0.00016934413579077,-2.5551361635351e-05,-1.7064029071191e-07,2.1114998669349e-07,-4.0509695981584e-08,-16.565687455189,34.311997227546,-0.60923916176225,0.39722222222222,50400.0,1,1100.0,530.0,0.2,17.0
576,12441600,144.0,-0.00014452327495832,0.00017019039269717,-2.5667117738845e-05,-1.7250583329751e-07,2.1356695437709e-07,-4.1061121079576e-08,-16.564899196905,34.415877364973,-0.59868167611928,0.4,50400.0,1,1100.0,530.0,0.2,17.0
580,12528000,145.0,-0.00014525271247306,0.00017103544909268,-2.5782736619615e-05,-1.7438233244164e-07,2.1599961168392e-07,-4.161727924228e-08,-16.563868318811,34.513284223043996,-0.5895944853482901,0.40277777777778,50400.0,1,1100.0,530.0,0.2,17.0
584,12614400,146.0,-0.00014598120773934,0.00017187944932288998,-2.5898241583543e-05,-1.7626991339756998e-07,2.1844813541751e-07,-4.2178222019932995e-08,-16.563086371434,34.622563656758,-0.57795393670937,0.40555555555556,50400.0,1,1100.0,530.0,0.2,17.0
588,12700800,147.0,-0.00014670867689059,0.00017272229465673,-2.6013617766145998e-05,-1.7816852896589e-07,2.2091246925534e-07,-4.2743940289456e-08,-16.562215118216,34.72148543045999,-0.56858661725372,0.40833333333333,50400.0,1,1100.0,530.0,0.2,17.0
592,12787200,148.0,-0.00014743519700875,0.00017356407678984,-2.6128879781091e-05,-1.8007827192242e-07,2.2339275205576001e-07,-4.3314480133338e-08,-16.561377070359,34.826505947135,-0.5579275093997701,0.41111111111111,50400.0,1,1100.0,530.0,0.2,17.0
596,12873600,149.0,-0.00014816074372613002,0.00017440476630137,-2.6244022575244e-05,-1.8199915592224e-07,2.2588901340963997e-07,-4.3889857487402003e-08,-16.560555045079,34.92828805925,-0.54782650509883,0.41388888888888997,50400.0,1,1100.0,530.0,0.2,17.0
600,12960000,150.0,-0.00014888533747493,0.00017524438842553,-2.6359050950601e-05,-1.8393120953170002e-07,2.2840129933856e-07,-4.4470089806857995e-08,-16.559627789482,35.028797141671,-0.5381079762316,0.41666666666667,50400.0,1,1100.0,530.0,0.2,17.0
604,13046400,151.0,-0.0001496089617471,0.00017608292252971,-2.647396078261e-05,-1.8587446946667e-07,2.3092967528474998e-07,-4.5055205818078e-08,-16.55885768459,35.128018853305,-0.52857153270876,0.41944444444444,50400.0,1,1100.0,530.0,0.2,17.0
608,13132800,152.0,-0.00015033167857015,0.00017692044523445,-2.6588766664309e-05,-1.8782898682595002e-07,2.3347420952164e-07,-4.564522269569e-08,-16.558016771041,35.231897256242,-0.51807131827527,0.42222222222222,50400.0,1,1100.0,530.0,0.2,17.0
612,13219200,153.0,-0.00015105344518051,0.00017775690529292,-2.6703460112411e-05,-1.8979476689244e-07,2.3603492542235998e-07,-4.6240158529922996e-08,-16.557167092355,35.329752634791,-0.5090255231210701,0.425,50400.0,1,1100.0,530.0,0.2,17.0
616,13305600,154.0,-0.0001517742832786,0.00017859232691873998,-2.6818043640145e-05,-1.9177185655083e-07,2.3861189928747e-07,-4.6840042736642996e-08,-16.556339883597,35.42793995047,-0.49986656180822997,0.42777777777778,50400.0,1,1100.0,530.0,0.2,17.0
620,13392000,155.0,-0.00015249423211613998,0.00017942675919927,-2.6932527083124e-05,-1.9376031779002e-07,2.4120521983351996e-07,-4.74449020435e-08,-16.555490308861998,35.530473940042,-0.48953016576316,0.43055555555555997,50400.0,1,1100.0,530.0,0.2,17.0
624,13478400,156.0,-0.00015321329957324,0.00018026021119918998,-2.7046911625945998e-05,-1.9576017781673999e-07,2.4381493323772997e-07,-4.8054755420991e-08,-16.554619539628998,35.631994585275,-0.47948370143040003,0.43333333333333,50400.0,1,1100.0,530.0,0.2,17.0
628,13564800,157.0,-0.00015393148064111,0.00018109267694698,-2.7161196305873998e-05,-1.9777146453128e-07,2.4644108921198e-07,-4.8669624680703e-08,-16.553760959495,35.731838863892,-0.46985541783751006,0.43611111111111,50400.0,1,1100.0,530.0,0.2,17.0
632,13651200,158.0,-0.00015464881144558001,0.00018192419976331,-2.7275388317732e-05,-1.9979423663929e-07,2.4908377483534996e-07,-4.9289538196054006e-08,-16.552910125020002,35.834694232472,-0.45944317579177,0.43888888888889,50400.0,1,1100.0,530.0,0.2,17.0
636,13737600,159.0,-0.00015536524278641,0.00018275472006257,-2.7389477276163e-05,-2.0182847949342e-07,2.5174298491946996e-07,-4.9914505426047995e-08,-16.552038977416,35.929628811316,-0.45089481057015,0.44166666666667,50400.0,1,1100.0,530.0,0.2,17.0
640,13824000,160.0,-0.000156080816613,0.00018358428944561,-2.7503472832615002e-05,-2.0387427239333e-07,2.5441883903502004e-07,-5.0544566641692e-08,-16.551104238822,36.029149847119,-0.44129190303811,0.44444444444444003,50400.0,1,1100.0,530.0,0.2,17.0
644,13910400,161.0,-0.00015679529206792,0.00018441262732255,-2.7617335254632002e-05,-2.0593145407536e-07,2.5711114759845e-07,-5.1179693523092e-08,-16.553625418535,36.098667201227,-0.44415426470846997,0.44722222222222,50400.0,1,1100.0,530.0,0.2,17.0
648,13996800,162.0,-0.00015750895662932,0.00018524006977992,-2.7731113150596998e-05,-2.0800027351286e-07,2.5982023852299e-07,-5.181996501013e-08,-16.552782699137,36.198957813934996,-0.43441220586755996,0.45,50400.0,1,1100.0,530.0,0.2,17.0
652,14083200,163.0,-0.00015822180708396002,0.00018606661377976,-2.7844806695799e-05,-2.1008074720890998e-07,2.6254613943653e-07,-5.2465392227615e-08,-16.551939820264,36.299183278976,-0.42468088648679,0.45277777777778,50400.0,1,1100.0,530.0,0.2,17.0
656,14169600,164.0,-0.00015893385420388999,0.00018689227185952,-2.7958417655625e-05,-2.1217291583087e-07,2.6528891672635e-07,-5.311600089547901e-08,-16.551094388056,36.399381417726005,-0.414951505725,0.45555555555556,50400.0,1,1100.0,530.0,0.2,17.0
660,14256000,165.0,-0.00015964510801849,0.00018771705617542,-2.8071948156921997e-05,-2.1427681878332e-07,2.6804863425777e-07,-5.3771815474448e-08,-16.550251977829,36.499509357971,-0.40523630484139,0.45833333333333,50400.0,1,1100.0,530.0,0.2,17.0
664,14342400,166.0,-0.00016035557615765,0.00018854097622977,-2.8185400072119e-05,-2.1639249173334999e-07,2.7082534956089e-07,-5.4432857827538e-08,-16.549410364002,36.599565922448,-0.39553393162983,0.46111111111111003,50400.0,1,1100.0,530.0,0.2,17.0
668,14428800,167.0,-0.00016106527143925,0.00018936404575852,-2.8298774319271996e-05,-2.1852000157426e-07,2.7361917523856e-07,-5.5099173664299e-08,-16.548568293624,36.699584045665,-0.3858358327539,0.46388888888889,50400.0,1,1100.0,530.0,0.2,17.0
672,14515200,168.0,-0.00016177420276103,0.00019018627538091998,-2.8412072619884998e-05,-2.2065938599265e-07,2.7643017227223e-07,-5.5770786279581e-08,-16.547728005943,36.799529353337995,-0.37615121316732003,0.46666666666667,50400.0,1,1100.0,530.0,0.2,17.0
676,14601600,169.0,-0.0001624823789985,0.00019100767642483998,-2.852529742634e-05,-2.2281068573298998e-07,2.7925840655031e-07,-5.6447720817319e-08,-16.546887867123,36.899414807255,-0.36647679201406,0.46944444444444,50400.0,1,1100.0,530.0,0.2,17.0
680,14688000,170.0,-0.00016318980732866,0.00019182825744003,-2.8638450111366998e-05,-2.2497392815876e-07,2.8210392115388e-07,-5.712999299511499e-08,-16.546048546353,36.999238396914,-0.35681355591526004,0.47222222222222,50400.0,1,1100.0,530.0,0.2,17.0
684,14774400,171.0,-0.00016389649768996998,0.00019264802964752,-2.8751531957551e-05,-2.2714915308906003e-07,2.8496678061612e-07,-5.781762752706e-08,-16.545209141429,37.099009059166995,-0.34715655353527003,0.475,50400.0,1,1100.0,530.0,0.2,17.0
688,14860800,172.0,-0.00016460245759593,0.0001934670027432,-2.8864545147268e-05,-2.2933639428804997e-07,2.8784703882178996e-07,-5.8510644533731996e-08,-16.544371161222998,37.198751936955,-0.33750366733921,0.47777777777778,50400.0,1,1100.0,530.0,0.2,17.0
692,14947200,173.0,-0.00016530751374813,0.00019428496294466002,-2.8977449196532002e-05,-2.3153554252682e-07,2.9074454219363997e-07,-5.9208999666822e-08,-16.540627362229998,37.282347389431,-0.32578358253481,0.48055555555556,50400.0,1,1100.0,530.0,0.2,17.0
696,15033600,174.0,-0.00016601183482453001,0.00019510211865986002,-2.9090283835327e-05,-2.3374675790509e-07,2.9365953300003e-07,-5.991277509494e-08,-16.539819765241,37.379234677679,-0.31682414340996995,0.48333333333333,50400.0,1,1100.0,530.0,0.2,17.0
700,15120000,175.0,-0.00016671543514296,0.00019591848895793998,-2.9203053814983002e-05,-2.3597008336386e-07,2.9659207653936e-07,-6.0621993175502e-08,-16.538836843760002,37.476886737953,-0.30766657521442997,0.48611111111111,50400.0,1,1100.0,530.0,0.2,17.0
704,15206400,176.0,-0.00016741856296951,0.00019673437548677,-2.9315812517267e-05,-2.382082659264e-07,2.9954751744682004e-07,-6.1339251520424e-08,-16.541021362937,37.597100546707,-0.2989919938687,0.48888888888889,50400.0,1,1100.0,530.0,0.2,17.0
708,15292800,177.0,-0.00016812099357701,0.0001975495040796,-2.9428510502590003e-05,-2.4045867322858e-07,3.0252070223009e-07,-6.2062029001515e-08,-16.540185125975,37.696568910709,-0.28938196679273,0.49166666666666997,50400.0,1,1100.0,530.0,0.2,17.0
712,15379200,178.0,-0.0001688227403984,0.00019836388947138,-2.9541149072978002e-05,-2.4272134606006e-07,3.0551169569208e-07,-6.2790349632029e-08,-16.539349210673002,37.795982242324,-0.27978009340378995,0.49444444444444,50400.0,1,1100.0,530.0,0.2,17.0
716,15465600,179.0,-0.00016952381114958,0.00019917754091873,-2.9653729769155e-05,-2.4499884357714e-07,3.0852556877653e-07,-6.3526725199385e-08,-16.538514225829,37.895346472983,-0.27018517370219,0.49722222222222,50400.0,1,1100.0,530.0,0.2,17.0
720,15552000,180.0,-0.00017022421160963,0.00019999046567554,-2.9766254065907e-05,-2.4728870926109e-07,3.1155742411393e-07,-6.4268714852841e-08,-16.537679847783,37.994645217893,-0.26060134104272,0.5,50400.0,1,1100.0,530.0,0.2,17.0
723,15573600,180.25,-0.00017022421160963,0.00019999046567554,-2.9766254065907e-05,-2.4728870926109e-07,3.1155742411393e-07,-6.4268714852841e-08,0.35571220362351,59.021354008368995,41.602176239671,0.50069444444444,90000.0,3,25.0,25.0,0.1,0.1
727,15674400,181.41666666667,-0.00017027111984953,0.00020004467748787,-2.9773557638338e-05,-2.4743840252063e-07,3.1175358434059994e-07,-6.4315181819975e-08,-16.537600053814,38.000842369659,-0.26002168970694,0.50393518518519,50400.0,1,1100.0,530.0,0.2,17.0
731,15760800,182.41666666667,-0.00017097076364273,0.00020085677972105,-2.9886016078321e-05,-2.4974146179065e-07,3.1480463269642e-07,-6.5063170905768e-08,-16.536794132729,38.10021286934,-0.25046152304251,0.50671296296296,50400.0,1,1100.0,530.0,0.2,17.0
735,15847200,183.41666666667,-0.0001716697539595,0.00020166817481398998,-2.9998420854496e-05,-2.5205697199731e-07,3.1787379777965003e-07,-6.5816825782338e-08,-16.535960788961,38.199412396582,-0.24089137332944002,0.50949074074074,50400.0,1,1100.0,530.0,0.2,17.0
739,15933600,184.41666666667,-0.00017236809497236,0.00020247886850121002,-3.0110773528848998e-05,-2.5438496198903e-07,3.2096112533958e-07,-6.657616335055e-08,-16.535128702785002,38.298534644758,-0.2313358881776,0.51226851851852,50400.0,1,1100.0,530.0,0.2,17.0
743,16020000,185.41666666667,-0.00017306579232762,0.00020328886739392,-3.0223075066291997e-05,-2.5672547158235996e-07,3.2406668069701e-07,-6.7341209114657e-08,-16.534295894638,38.397619238937004,-0.22178391144761,0.5150462962962999,50400.0,1,1100.0,530.0,0.2,17.0
747,16106400,186.41666666667,-0.00017376285301908998,0.00020409817942339,-3.0335326404306e-05,-2.5907855002086e-07,3.2719054494103997e-07,-6.8111994920179e-08,-16.533463385659,38.49662253999,-0.21224542317093,0.51782407407407,50400.0,1,1100.0,530.0,0.2,17.0
751,16192800,187.41666666667,-0.00017445928283633,0.0002049068117656,-3.0447528929265002e-05,-2.6144423208772e-07,3.3033277422866e-07,-6.8888542140931e-08,-16.532631191147,38.595599159734995,-0.2027094405948,0.52060185185185,50400.0,1,1100.0,530.0,0.2,17.0
755,16279200,188.41666666667,-0.00017515508865786,0.00020571477224978,-3.0559683591918e-05,-2.6382256284322e-07,3.3349344221758e-07,-6.967087937436e-08,-16.53179997233,38.694529890189,-0.19318004927996,0.52337962962963,50400.0,1,1100.0,530.0,0.2,17.0
759,16365600,189.41666666667,-0.00017585027574281,0.00020652206685189,-3.0671791109082e-05,-2.6621357406745e-07,3.3667259979507e-07,-7.045902572762901e-08,-16.53096900696,38.793393402093,-0.18366114300801,0.52615740740741,50400.0,1,1100.0,530.0,0.2,17.0
763,16452000,190.41666666667,-0.00017654485029218998,0.00020732870336112,-3.0783853068925e-05,-2.6861730372141e-07,3.3987030852742e-07,-7.125300480600599e-08,-16.530138388964,38.892224930993,-0.17414540812066,0.52893518518519,50400.0,1,1100.0,530.0,0.2,17.0
767,16538400,191.41666666667,-0.00017723881862904,0.00020813468871202,-3.0895870082983e-05,-2.7103380139238e-07,3.4308665009332e-07,-7.2052848700944e-08,-16.529308072846,38.990981528593004,-0.16464224685360998,0.53171296296296,50400.0,1,1100.0,530.0,0.2,17.0
771,16624800,192.41666666667,-0.00017793190298791002,0.0002089396855001,-3.1007782512190004e-05,-2.7346286093169e-07,3.4632133961953e-07,-7.2858478687841e-08,-16.525542744618,39.063309992492,-0.15575988372426,0.53449074074074,50400.0,1,1100.0,530.0,0.2,17.0
775,16711200,193.41666666667,-0.00017862442318275,0.00020974408041508,-3.1119657232331e-05,-2.759047934246e-07,3.4957482655596e-07,-7.3670033131359e-08,-16.524726432660998,39.16451564922,-0.1455010513941,0.53726851851852,50400.0,1,1100.0,530.0,0.2,17.0
779,16797600,194.41666666667,-0.00017931635947233,0.00021054785107972,-3.1231491607391e-05,-2.7835960460084e-07,3.5284712461134e-07,-7.4487520010505e-08,-16.523927691151,39.263859871911,-0.13579592137718,0.5400462962963,50400.0,1,1100.0,530.0,0.2,17.0
783,16884000,195.41666666667,-0.00018000771812487,0.0002113510044181,-3.1343286293229e-05,-2.8082734315426996e-07,3.5613831477115e-07,-7.5310971616875e-08,-16.523099707798,39.363272822818,-0.1260945101575,0.54282407407407,50400.0,1,1100.0,530.0,0.2,17.0
787,16970400,196.41666666667,-0.00018069850418378,0.00021215354684875,-3.1455042664966e-05,-2.8330805271590006e-07,3.5944846661659996e-07,-7.614041390069501e-08,-16.522270620642,39.462750923397,-0.11632258163593,0.54560185185185,50400.0,1,1100.0,530.0,0.2,17.0
791,17056800,197.41666666667,-0.00018138895672745,0.00021295577073217,-3.156681400472e-05,-2.8580197191519997e-07,3.6277793328045996e-07,-7.697596136526299e-08,-16.524337657918,39.582356439072,-0.10779294285591999,0.54837962962963,50400.0,1,1100.0,530.0,0.2,17.0
795,17143200,198.41666666667,-0.00018207861418926,0.00021375710885701001,-3.1678494667755e-05,-2.8830873238011e-07,3.6612618518667996e-07,-7.781745280657099e-08,-16.520824867483,39.660274020666,-0.09707796632070698,0.55115740740741,50400.0,1,1100.0,530.0,0.2,17.0
799,17229600,199.41666666667,-0.00018276772230178,0.00021455786332426002,-3.1790141022474e-05,-2.9082858038605e-07,3.6949358631444e-07,-7.8665005928387e-08,-16.519988882828,39.759916129326,-0.08725432760007999,0.5539351851851899,50400.0,1,1100.0,530.0,0.2,17.0
803,17316000,200.41666666667,-0.0001834562855397,0.00021535803952015,-3.1901753980452005e-05,-2.9336156437798e-07,3.7288021615999e-07,-7.9518651782003e-08,-16.519181930075,39.860135966392,-0.07735611828736401,0.5567129629629599,50400.0,1,1100.0,530.0,0.2,17.0
807,17402400,201.41666666667,-0.00018414430036553,0.00021615763265031,-3.201333228478e-05,-2.9590771394074997e-07,3.7628612442220004e-07,-8.0378410481447e-08,-16.518306922974,39.959679150321996,-0.067552559567462,0.55949074074074,50400.0,1,1100.0,530.0,0.2,17.0
811,17488800,202.41666666667,-0.00018483176951374,0.00021695664662928002,-3.2124877115536e-05,-2.9846706176885e-07,3.7971136388853e-07,-8.1244302119681e-08,-16.517477949519,40.058436578353,-0.057974564432123,0.56226851851852,50400.0,1,1100.0,530.0,0.2,17.0
815,17575200,203.41666666667,-0.00018551872049400001,0.00021775511455445,-3.2236394060449e-05,-3.0103966227738e-07,3.8315601650644004e-07,-8.2116354229064e-08,-16.516610621526002,40.160006001225,-0.04773523278361,0.5650462962963001,50400.0,1,1100.0,530.0,0.2,17.0
819,17661600,204.41666666667,-0.00018620512869299,0.00021855300608404,-3.2347877391051e-05,-3.0362552377687e-07,3.8662010411937e-07,-8.299458034249999e-08,-16.515790565906,40.257869646409,-0.038372103985359,0.56782407407407,50400.0,1,1100.0,530.0,0.2,17.0
823,17748000,205.41666666667,-0.00018689102683627,0.00021935035992265,-3.2459333086373996e-05,-3.0622471708542e-07,3.9010373420398996e-07,-8.3879017118573e-08,-16.514992130229,40.358801941208,-0.028254641241307003,0.57060185185185,50400.0,1,1100.0,530.0,0.2,17.0
827,17834400,206.41666666667,-0.00018757639604978,0.00022014715381189,-3.2570757762103006e-05,-3.0883726461599e-07,3.9360695054671e-07,-8.4769685930725e-08,-16.514111391651,40.456657683866,-0.018872951684825,0.57337962962963,50400.0,1,1100.0,530.0,0.2,17.0
831,17920800,207.41666666667,-0.00018826124988421,0.00022094340347917003,-3.2682153594951004e-05,-3.1146321648193e-07,3.9712983119774e-07,-8.5666614715813e-08,-16.513291629713,40.556341802002,-0.0090491863636403,0.5761574074074101,50400.0,1,1100.0,530.0,0.2,17.0
835,18007200,208.41666666667,-0.00018894558933582,0.00022173911059727002,-3.2793521261449e-05,-3.1410260229644e-07,4.0067242475640996e-07,-8.6569822459967e-08,-16.512426641765,40.655844340373,0.00075087906458853,0.5789351851851899,50400.0,1,1100.0,530.0,0.2,17.0
839,18093600,209.41666666667,-0.00018962943000075,0.00022253429303228998,-3.2904863031543e-05,-3.1675547971835e-07,4.0423482254337003e-07,-8.7479342825019e-08,-16.511598858605,40.755240296385004,0.01050574492169,0.5817129629629599,50400.0,1,1100.0,530.0,0.2,17.0
843,18180000,210.41666666667,-0.00019031276707323,0.00022332894510088998,-3.3016178027660997e-05,-3.1942188264353e-07,4.0781708198051e-07,-8.8395199336985e-08,-16.51076619569,40.854002000348004,0.020123756232534,0.58449074074074,50400.0,1,1100.0,530.0,0.2,17.0
847,18266400,211.41666666667,-0.0001909956049503,0.00022412307179027003,-3.3127466839972e-05,-3.2210184802148e-07,4.1141926301899e-07,-8.931741499751401e-08,-16.509931196163002,40.953554956680996,0.029928268238807003,0.58726851851852,50400.0,1,1100.0,530.0,0.2,17.0
851,18352800,212.41666666667,-0.00019167795119488,0.00022491668166785,-3.3238730472961e-05,-3.2479541953069e-07,4.1504143599903e-07,-9.024601646833801e-08,-16.509116883381,41.053744437138,0.039857159274252,0.5900462962963001,50400.0,1,1100.0,530.0,0.2,17.0
855,18439200,213.41666666667,-0.00019235979773002,0.00022570976554783998,-3.3349967817819e-05,-3.275026230321e-07,4.1868364532722e-07,-9.118102229512301e-08,-16.508264974238,41.152306812663,0.049443582096608,0.5928240740740699,50400.0,1,1100.0,530.0,0.2,17.0
859,18525600,214.41666666667,-0.00019304115009191998,0.00022650232973377003,-3.3461179641853005e-05,-3.302235038769e-07,4.2234596557333997e-07,-9.2122461696444e-08,-16.507416025374997,41.250998549154,0.05902714636594901,0.59560185185185,50400.0,1,1100.0,530.0,0.2,17.0
863,18612000,215.41666666667,-0.00019372200453848999,0.00022729436940957003,-3.3572364871081e-05,-3.3295809540135e-07,4.2602845217455e-07,-9.307035677319198e-08,-16.506631011885,41.348979663508,0.06849005886140701,0.59837962962963,50400.0,1,1100.0,530.0,0.2,17.0
867,18698400,216.41666666667,-0.00019440236368543,0.00022808589656731,-3.3683532881884e-05,-3.357064317625e-07,4.2973118817775e-07,-9.402475641525099e-08,-16.508702676025,41.443213445748,0.070647822332879,0.6011574074074101,50400.0,1,1100.0,530.0,0.2,17.0
871,18784800,217.41666666667,-0.00019508222478829,0.00022887689921675,-3.3794674428461e-05,-3.3846854189259997e-07,4.3345419462151003e-07,-9.498565272890401e-08,-16.507883490731,41.540663147728,0.079975115818417,0.60393518518519,50400.0,1,1100.0,530.0,0.2,17.0
875,18871200,218.41666666667,-0.00019576164419164,0.00022966743496447,-3.3905790772833e-05,-3.4124454389713e-07,4.3719762610317003e-07,-9.5953082206041e-08,-16.504233621644,41.647097183015,0.097549738000873,0.60671296296296,50400.0,1,1100.0,530.0,0.2,17.0
879,18957600,219.41666666667,-0.00019644059715873,0.00023045748269967002,-3.4016885540934005e-05,-3.4403443496933e-07,4.4096151128965e-07,-9.6927076320324e-08,-16.503408037344002,41.745796275141004,0.10716760313314999,0.6094907407407401,50400.0,1,1100.0,530.0,0.2,17.0
883,19044000,220.41666666667004,-0.00019711905841693998,0.00023124701187738999,-3.4127953460458e-05,-3.4683823854624e-07,4.4474589789118994e-07,-9.790765934495302e-08,-16.502508505861,41.842217049009996,0.11629156870615,0.61226851851852,50400.0,1,1100.0,530.0,0.2,17.0
887,19130400,221.41666666667004,-0.00019779704746194,0.00023203604630301,-3.4238998841065996e-05,-3.4965601236061e-07,4.4855087369640997e-07,-9.8894861335799e-08,-16.501689907537997,41.940803812061,0.12589320787476999,0.6150462962963,50400.0,1,1100.0,530.0,0.2,17.0
891,19216800,222.41666666667004,-0.00019847449363259,0.00023282450962656002,-3.435001599397e-05,-3.5248770979038e-07,4.5237640876361997e-07,-9.9888698973242e-08,-16.503795396157,42.027227075201004,0.12653615913062,0.6178240740740699,50400.0,1,1100.0,530.0,0.2,17.0
895,19303200,223.41666666667004,-0.00019915146160501,0.00023361247022058,-3.4461008615571995e-05,-3.5533344104937e-07,4.5622264135451e-07,-1.0088920030513999e-07,-16.502980411379003,42.124374461397,0.13582424982146,0.62060185185185,50400.0,1,1100.0,530.0,0.2,17.0
899,19389600,224.41666666667004,-0.00019982802851903998,0.00023440001152751002,-3.4571983008469e-05,-3.581933495272e-07,4.600897571565e-07,-1.0189640762929e-07,-16.499184512291,42.233901333971,0.15441409072961,0.62337962962963,50400.0,1,1100.0,530.0,0.2,17.0
903,19476000,225.41666666667004,-0.00020050406253578,0.00023518699288564,-3.4682930349858e-05,-3.6106728733538e-07,4.6397760826871994e-07,-1.0291032093334e-07,-16.501348187477,42.318574569017,0.1543969732978,0.6261574074074101,50400.0,1,1100.0,530.0,0.2,17.0
907,19562400,226.41666666667004,-0.00020117962771828998,0.00023597348186355,-3.4793854145267e-05,-3.6395539381569e-07,4.6788637892203997e-07,-1.0393098510635001e-07,-16.500532335883,42.415569474099,0.16366624681815,0.6289351851851899,50400.0,1,1100.0,530.0,0.2,17.0
911,19648800,227.41666666667004,-0.0002018547307376,0.0002367594864742,-3.4904755736603e-05,-3.6685770063262e-07,4.7181611815363997e-07,-1.0495841752102e-07,-16.499717324621,42.512547260388,0.17293691372642003,0.63171296296296,50400.0,1,1100.0,530.0,0.2,17.0
915,19735200,228.41666666667004,-0.00020252937466038002,0.00023754501037867,-3.5015635718293e-05,-3.6977424355147e-07,4.7576688394078997e-07,-1.0599264038932e-07,-16.498902850074998,42.609479879246,0.18220253949535,0.63449074074074,50400.0,1,1100.0,530.0,0.2,17.0
919,19821600,229.41666666667004,-0.00020320356339492,0.00023833005748706,-3.5126494092138e-05,-3.7270507324884e-07,4.797387601524e-07,-1.0703368690356e-07,-16.498088395870003,42.706360754645,0.19146201909086,0.63726851851852,50400.0,1,1100.0,530.0,0.2,17.0
923,19908000,230.41666666667004,-0.00020387729901423998,0.00023911463027306002,-3.5237331258811e-05,-3.7565023090274e-07,4.8373181434319e-07,-1.0808158344045999e-07,-16.497274799478,42.803183835974004,0.20071249438523,0.6400462962963,50400.0,1,1100.0,530.0,0.2,17.0
927,19994400,231.41666666667004,-0.00020455058454926,0.00023989873233884,-3.5348147789586e-05,-3.7860975375636e-07,4.8774610677723e-07,-1.0913635302087e-07,-16.496461582894,42.899957873590004,0.20995718387089002,0.6428240740740699,50400.0,1,1100.0,530.0,0.2,17.0
931,20080800,232.41666666667004,-0.00020522342206368,0.00024068236587477997,-3.5458943811101e-05,-3.8158367926065e-07,4.917816985982701e-07,-1.1019801933761e-07,-16.495648524369,42.996691175943006,0.21919805418584,0.64560185185185,50400.0,1,1100.0,530.0,0.2,17.0
935,20167200,233.41666666667004,-0.00020589581435448,0.00024146553423286,-3.556971987838e-05,-3.8457204368433e-07,4.958386484873901e-07,-1.1126660480306e-07,-16.49483581518,43.093378799505,0.22843342818094,0.64837962962963,50400.0,1,1100.0,530.0,0.2,17.0
939,20253600,234.41666666667004,-0.00020656776503728,0.00024224824118189,-3.5680476144608e-05,-3.8757489924513e-07,4.999170430029e-07,-1.1234214375776999e-07,-16.494023116239998,43.190016233179996,0.23766330249991,0.65115740740741,50400.0,1,1100.0,530.0,0.2,17.0
943,20340000,235.41666666667004,-0.00020723927569401,0.00024303048865001,-3.5791212955995e-05,-3.9059227461794e-07,5.0401692788853e-07,-1.1342465327058999e-07,-16.493211076173,43.286597378691,0.24688505366704003,0.6539351851851899,50400.0,1,1100.0,530.0,0.2,17.0
947,20426400,236.41666666667004,-0.0002079103495815,0.00024381228017377002,-3.5901930592268e-05,-3.9362422220931e-07,5.081383899737e-07,-1.1451416776438999e-07,-16.492399385826,43.383163575769,0.25610927124961,0.6567129629629599,50400.0,1,1100.0,530.0,0.2,17.0
951,20512800,237.41666666667004,-0.0002085809895188,0.00024459361893636,-3.6012629417552e-05,-3.9667077941638e-07,5.122814900514301e-07,-1.1561071063505e-07,-16.491588657437998,43.479657550552,0.26532158101156,0.65949074074074,50400.0,1,1100.0,530.0,0.2,17.0
955,20599200,238.41666666667004,-0.0002092511966927,0.00024537450626434,-3.6123309571638e-05,-3.9973198068278e-07,5.1644628429646e-07,-1.1671430361368e-07,-16.490777700336,43.576117221418,0.27453183005938003,0.66226851851852,50400.0,1,1100.0,530.0,0.2,17.0
959,20685600,239.41666666667004,-0.00020992097423206,0.00024615494562232003,-3.6233971390256e-05,-4.0280787043551003e-07,5.2063284539355e-07,-1.1782497495803001e-07,-16.489967058001,43.672522252392,0.28373486008932003,0.6650462962963001,50400.0,1,1100.0,530.0,0.2,17.0
963,20772000,240.41666666667004,-0.00021059032471497,0.00024693493970472997,-3.6344614989763e-05,-4.0589849436971997e-07,5.248412488058099e-07,-1.1894275443608999e-07,-16.489157473298,43.768881873399,0.29293269614038003,0.66782407407407,50400.0,1,1100.0,530.0,0.2,17.0
967,20858400,241.41666666667004,-0.00021125925019855,0.00024771449086432,-3.6455240665769e-05,-4.0900389288182997e-07,5.2907156049787e-07,-1.2006766761604e-07,-16.488348243569,43.865193575377,0.30212491975827,0.67060185185185,50400.0,1,1100.0,530.0,0.2,17.0
971,20944800,242.41666666667004,-0.00021192775286625,0.0002484936016414,-3.6565848775153995e-05,-4.121240974373e-07,5.333238310398699e-07,-1.2119973360256e-07,-16.487539217071,43.961459997242,0.311312140136,0.67337962962963,50400.0,1,1100.0,530.0,0.2,17.0
975,21031200,243.41666666667004,-0.00021259583529826,0.0002492722746297,-3.6676439331449e-05,-4.1525916009477e-07,5.3759814688556e-07,-1.2233898679078e-07,-16.486730463931,44.057677458442,0.32049353898941996,0.67615740740741,50400.0,1,1100.0,530.0,0.2,17.0
979,21117600,244.41666666667004,-0.00021326349979864,0.00025005051266259,-3.6787012863949e-05,-4.1840911827981e-07,5.4189456879488e-07,-1.2348545051508e-07,-16.485921920928,44.153840157004005,0.32966763671029,0.67893518518519,50400.0,1,1100.0,530.0,0.2,17.0
983,21204000,245.41666666667004,-0.00021393074801346002,0.00025082831724961,-3.6897569236151e-05,-4.2157401109246e-07,5.4621316077438e-07,-1.2463914968192001e-07,-16.485113520847,44.24997657859,0.33884197910689,0.68171296296296,50400.0,1,1100.0,530.0,0.2,17.0
987,21290400,246.41666666667004,-0.0002145975824138,0.00025160569128847,-3.7008108874668e-05,-4.2475388311885e-07,5.505539962720199e-07,-1.2580011315317e-07,-16.484306285845,44.346040798464,0.34800440887435996,0.68449074074074,50400.0,1,1100.0,530.0,0.2,17.0
991,21376800,247.41666666667004,-0.00021526400442732,0.00025238263617761,-3.7118631750289003e-05,-4.2794877204499996e-07,5.5491713686944e-07,-1.2696836482444e-07,-16.483499277053,44.442076991280004,0.35716612228532,0.68726851851852,50400.0,1,1100.0,530.0,0.2,17.0
995,21463200,248.41666666667004,-0.00021593001658387,0.00025315915491703,-3.7229138333164e-05,-4.3115871600031e-07,5.593026443789e-07,-1.2814392837859002e-07,-16.482692538671,44.538086438799,0.36632745925333,0.6900462962963,50400.0,1,1100.0,530.0,0.2,17.0
999,21549600,249.41666666667004,-0.00021659562154018,0.00025393525027955,-3.733962873937e-05,-4.3438376344787e-07,5.6371059900443e-07,-1.2932683555655998e-07,-16.481886020939,44.634020387118994,0.37547684933668,0.69282407407407,50400.0,1,1100.0,530.0,0.2,17.0
1003,21636000,250.41666666667004,-0.00021726082141925,0.00025471092399842997,-3.7450102579181e-05,-4.3762396329417e-07,5.6814108196924e-07,-1.3051711867507e-07,-16.481080269132,44.729912071011,0.38462178135062003,0.69560185185185,50400.0,1,1100.0,530.0,0.2,17.0
1007,21722400,251.41666666667004,-0.00021792561792851,0.00025548617816427996,-3.7560560235773e-05,-4.4087934753810995e-07,5.7259414463353e-07,-1.3171479709542e-07,-16.480274091805,44.825770746913996,0.39376532282302,0.69837962962963,50400.0,1,1100.0,530.0,0.2,17.0
1011,21808800,252.41666666667004,-0.00021859001265253002,0.00025626101496135,-3.7671002308824e-05,-4.4414995878955003e-07,5.7706985706331e-07,-1.3291989827374999e-07,-16.479468887255003,44.921584584933996,0.40290385465859,0.70115740740741,50400.0,1,1100.0,530.0,0.2,17.0
1015,21895200,253.41666666667004,-0.00021925400877305,0.00025703543728407003,-3.7781428511022e-05,-4.4743583849793994e-07,5.8156828695637e-07,-1.3413244845843002e-07,-16.478663762655,45.01735020498901,0.41203688481728,0.7039351851851899,50400.0,1,1100.0,530.0,0.2,17.0
1019,21981600,254.41666666667004,-0.00021991760729164,0.00025780944660755,-3.7891839315907e-05,-4.5073702551427e-07,5.860894978856499e-07,-1.3535247237139e-07,-16.477859548938,45.113086068503996,0.4211687177367,0.70671296296296,50400.0,1,1100.0,530.0,0.2,17.0
1023,22068000,255.41666666667004,-0.00022058081070907998,0.00025858304530706,-3.8002234597978e-05,-4.5405356395587e-07,5.9063356239637e-07,-1.365799984405e-07,-16.477055211749,45.208764100193996,0.43029223102807,0.70949074074074,50400.0,1,1100.0,530.0,0.2,17.0
1027,22154400,256.41666666667004,-0.00022124362043641002,0.00025935623515646003,-3.811261472005e-05,-4.5738550204686e-07,5.952005606043199e-07,-1.3781505855746e-07,-16.476251386020003,45.304378580038005,0.4394073794007,0.71226851851852,50400.0,1,1100.0,530.0,0.2,17.0
1031,22240800,257.41666666667004,-0.00022190603855896002,0.00026012901825001,-3.8222979691046e-05,-4.6073286419984e-07,5.9979053076025e-07,-1.3905766656041e-07,-16.475448187582,45.39997628015001,0.44852406411606,0.7150462962963,50400.0,1,1100.0,530.0,0.2,17.0
1035,22327200,258.41666666667004,-0.00022256806616489,0.00026090139594967996,-3.8333329784797995e-05,-4.6409569636795e-07,6.044035485261999e-07,-1.4030785215825e-07,-16.474645382259,45.495487458073995,0.45762589820701005,0.71782407407407,50400.0,1,1100.0,530.0,0.2,17.0
1039,22413600,259.41666666667004,-0.00022322970535681002,0.00026167337065845,-3.8443665301637e-05,-4.6747404182162e-07,6.090396848736399e-07,-1.4156564305203e-07,-16.473842696768997,45.590985963857,0.46673110905319,0.72060185185185,50400.0,1,1100.0,530.0,0.2,17.0
1043,22500000,260.41666666667004,-0.00022389095790034,0.00026244494394122,-3.8553986040871995e-05,-4.7086792641232005e-07,6.1369898114678e-07,-1.4283105473446e-07,-16.473039968722,45.686453280051005,0.47583518192846996,0.72337962962963,50400.0,1,1100.0,530.0,0.2,17.0
1047,22586400,261.41666666667004,-0.00022455182597946,0.00026321611836847,-3.8664292389011e-05,-4.7427742491870004e-07,6.1838156281946e-07,-1.4410413790076e-07,-16.472237952498,45.78184327244001,0.48492643463491,0.72615740740741,50400.0,1,1100.0,530.0,0.2,17.0
1051,22672800,262.41666666667004,-0.00022521231100732997,0.00026398689494388,-3.8774583936546996e-05,-4.777025490752401e-07,6.2308744669046e-07,-1.4538489761521999e-07,-16.471436770876,45.877208673676,0.49401737403470003,0.72893518518519,50400.0,1,1100.0,530.0,0.2,17.0
1055,22759200,263.41666666667004,-0.00022587241456852999,0.00026475727573275,-3.8884861164218e-05,-4.8114334919307e-07,6.2781671617599e-07,-1.4667336698290999e-07,-16.470635731606,45.972523060302,0.50310295129594,0.73171296296296,50400.0,1,1100.0,530.0,0.2,17.0
1059,22845600,264.41666666667004,-0.00022653213746603998,0.0002655272615085,-3.8995124042464e-05,-4.8459986555758e-07,6.3256943750374e-07,-1.4796957194616e-07,-16.469835013571,46.067792049282,0.51218319868161,0.7344907407407401,50400.0,1,1100.0,530.0,0.2,17.0
1063,22932000,265.41666666667004,-0.00022719148252096,0.00026629685539759,-3.9105372876631e-05,-4.8807214543308e-07,6.3734568830929e-07,-1.4927354287620002e-07,-16.46903417976,46.163006025435,0.52125669616546,0.73726851851852,50400.0,1,1100.0,530.0,0.2,17.0
1067,23018400,266.41666666667004,-0.00022785045009272002,0.00026706605779705,-3.9215607704326e-05,-4.9156021458448e-07,6.4214550980077e-07,-1.5058529521629998e-07,-16.468234553785997,46.258184480161,0.53032758405787,0.7400462962963,50400.0,1,1100.0,530.0,0.2,17.0
1071,23104800,267.41666666667004,-0.00022850904218717002,0.0002678348709377,-3.9325828750531e-05,-4.9506411854047e-07,6.4696897690605e-07,-1.5190485836558e-07,-16.467434606398,46.35332279458299,0.53939639107419,0.74282407407407,50400.0,1,1100.0,530.0,0.2,17.0
1075,23191200,268.41666666667004,-0.00022916726013311002,0.00026860329651599,-3.9436036382881e-05,-4.9858390153891e-07,6.5181616241231e-07,-1.532322608734e-07,-16.466636111567,46.448412806922,0.54845764159763,0.74560185185185,50400.0,1,1100.0,530.0,0.2,17.0
1079,23277600,269.41666666667004,-0.00022982510475321,0.00026937133524072,-3.9546230487506e-05,-5.021196035305e-07,6.5668713198625e-07,-1.5456752845575e-07,-16.465835838518,46.543448473142995,0.5575136886158101,0.74837962962963,50400.0,1,1100.0,530.0,0.2,17.0
1083,23364000,270.41666666667004,-0.00023048257779078,0.00027013898837774,-3.9656410586958e-05,-5.0567125853165e-07,6.6158194127195e-07,-1.5591068274029998e-07,-16.465037650703,46.638449140952,0.56656629876954,0.75115740740741,50400.0,1,1100.0,530.0,0.2,17.0
1087,23450400,271.41666666667004,-0.00023113968152793998,0.00027090625863016,-3.9766577102218e-05,-5.092389050687e-07,6.6650065268264e-07,-1.5726174761394e-07,-16.464239791478,46.733404647192,0.57561475161093,0.75393518518519,50400.0,1,1100.0,530.0,0.2,17.0
1091,23536800,272.41666666667004,-0.00023179641716471002,0.00027167314728023,-3.9876730115521e-05,-5.1282260771112e-07,6.7144337474427e-07,-1.5862076703316e-07,-16.463441336531,46.828320321862,0.58465981912235,0.75671296296296,50400.0,1,1100.0,530.0,0.2,17.0
1095,23623200,273.41666666667004,-0.00023245278562507998,0.00027243965528895,-3.9986869663871996e-05,-5.1642238703376e-07,6.764101391895899e-07,-1.5998775215583e-07,-16.462643899354998,46.923170602691,0.59369516752903,0.75949074074074,50400.0,1,1100.0,530.0,0.2,17.0
1099,23709600,274.41666666667004,-0.00023310878839881001,0.00027320578427114,-4.0096995872331e-05,-5.2003829327403e-07,6.814010294441301e-07,-1.6136273617009e-07,-16.461847768664,47.0179912315,0.60272923274212,0.76226851851852,50400.0,1,1100.0,530.0,0.2,17.0
1103,23796000,275.41666666667004,-0.00023376442708737997,0.00027397153579724,-4.0207108709863e-05,-5.2367036269608e-07,6.8641610464963e-07,-1.6274574195355e-07,-16.461050537496,47.112780993652,0.61176312009093,0.7650462962962999,50400.0,1,1100.0,530.0,0.2,17.0
1107,23882400,276.41666666667004,-0.000234419703272,0.00027473691153587004,-4.0317208263875e-05,-5.273186524512999e-07,6.9145546001646e-07,-1.6413680756516e-07,-16.460254304821998,47.207490175112,0.6207829403944699,0.76782407407407,50400.0,1,1100.0,530.0,0.2,17.0
1111,23968800,277.41666666667004,-0.00023507461639925,0.00027550191095169,-4.0427294552436e-05,-5.309831592358e-07,6.9651908667922e-07,-1.6553592744342e-07,-16.459459394012,47.302185509268,0.62980552968377,0.77060185185185,50400.0,1,1100.0,530.0,0.2,17.0
1115,24055200,278.41666666667004,-0.00023572916905575,0.00027626653689955,-4.0537367843807e-05,-5.346639604971099e-07,7.0160711471305e-07,-1.6694315421594e-07,-16.458664344402003,47.396826699456994,0.63882160644428,0.77337962962963,50400.0,1,1100.0,530.0,0.2,17.0
1119,24141600,279.41666666667004,-0.00023638336220902997,0.00027703078921535,-4.0647427006321e-05,-5.3836107463259e-07,7.067195732286199e-07,-1.6835849859603e-07,-16.457869198397997,47.491413981552,0.64783128425918,0.77615740740741,50400.0,1,1100.0,530.0,0.2,17.0
1123,24228000,280.41666666667004,-0.00023703719769026002,0.00027779467060926,-4.0757472919006e-05,-5.4207456458489e-07,7.1185656687858e-07,-1.6978200229369e-07,-16.457074804403,47.585970430791996,0.65683952250779,0.77893518518519,50400.0,1,1100.0,530.0,0.2,17.0
1127,24314400,281.41666666667004,-0.00023769067527332002,0.00027855818139922,-4.0867506125903e-05,-5.4580446584622e-07,7.1701815357471e-07,-1.7121368772849e-07,-16.456280390095998,47.680469264562,0.66583997723894,0.78171296296296,50400.0,1,1100.0,530.0,0.2,17.0
1131,24400800,282.41666666667004,-0.00023834379729991,0.00027932132307325,-4.0977525773338e-05,-5.4955081464757e-07,7.2220439270484e-07,-1.7265357805726e-07,-16.455487245465,47.774912294391,0.6748329356348101,0.78449074074074,50400.0,1,1100.0,530.0,0.2,17.0
1135,24487200,283.41666666667004,-0.00023899656426396002,0.00028008409648501003,-4.1087532221052e-05,-5.5331366497479e-07,7.2741537420838e-07,-1.7410170923359002e-07,-16.454693771518,47.86933896113,0.6838289383309599,0.78726851851852,50400.0,1,1100.0,530.0,0.2,17.0
1139,24573600,284.41666666667004,-0.00023964897801972997,0.00028084650336478997,-4.1197525345062e-05,-5.5709305427822e-07,7.3265115927684e-07,-1.7555810499861e-07,-16.453900618597,47.963701095585,0.6928154906192601,0.7900462962963,50400.0,1,1100.0,530.0,0.2,17.0
1143,24660000,285.41666666667004,-0.00024030103946073,0.00028160854443959,-4.1307504978856e-05,-5.608890356181e-07,7.3791183607736e-07,-1.7702280045926002e-07,-16.453107038187,48.058039634985,0.70180275542126,0.79282407407407,50400.0,1,1100.0,530.0,0.2,17.0
1147,24746400,286.41666666667004,-0.00024095275045444,0.00028237022180457996,-4.1417471350141e-05,-5.6470164181727e-07,7.431974578595601e-07,-1.7849581604229e-07,-16.45231573019,48.152325971437996,0.71078321943865,0.79560185185185,50400.0,1,1100.0,530.0,0.2,17.0
1151,24832800,287.41666666667004,-0.00024160411210649,0.00028313153651275,-4.1527424406267e-05,-5.6853090541849e-07,7.4850807781285e-07,-1.7997717239436e-07,-16.451523935464,48.24654910965901,0.71975548388467,0.79837962962963,50400.0,1,1100.0,530.0,0.2,17.0
1155,24919200,288.41666666667004,-0.00024225512511537997,0.0002838924889164,-4.1637363801018e-05,-5.7237687725558e-07,7.538437802529701e-07,-1.8146690299739e-07,-16.450732413311,48.340750612666,0.7287278001557399,0.80115740740741,50400.0,1,1100.0,530.0,0.2,17.0
1159,25005600,289.41666666667004,-0.0002429057903495,0.00028465308001636,-4.1747289666859996e-05,-5.7623959120239e-07,7.5920462046207e-07,-1.8296502925968e-07,-16.449941939388,48.434901745977,0.7376946928023399,0.80393518518519,50400.0,1,1100.0,530.0,0.2,17.0
1163,25092000,290.41666666667004,-0.0002435561092972,0.00028541331134127,-4.1857202044075e-05,-5.8011909883082e-07,7.6459068411043e-07,-1.8447158527960999e-07,-16.449150083025,48.528999632753,0.7466560867246999,0.80671296296296,50400.0,1,1100.0,530.0,0.2,17.0
1167,25178400,291.41666666667004,-0.00024420608223992,0.00028617318356674,-4.1967101326819e-05,-5.840154319293e-07,7.700020227488901e-07,-1.8598659081958998e-07,-16.448360333072,48.623069161194,0.7556159555628499,0.80949074074074,50400.0,1,1100.0,530.0,0.2,17.0
1171,25264800,292.41666666667004,-0.00024485571206128,0.00028693269903365,-4.2076986972369e-05,-5.8792864920891e-07,7.7543873406265e-07,-1.8751008485374e-07,-16.447570719421,48.717103382967,0.76457365109361,0.81226851851852,50400.0,1,1100.0,530.0,0.2,17.0
1175,25351200,293.41666666667004,-0.00024550499870429,0.00028769185842609,-4.21868597218e-05,-5.9185878603512e-07,7.809008759525501e-07,-1.8904208991743e-07,-16.446781531703,48.811058324724996,0.7735184335867199,0.8150462962963,50400.0,1,1100.0,530.0,0.2,17.0
1179,25437600,294.41666666667004,-0.0002461539435842,0.00028845066211373,-4.2296718529532e-05,-5.9580588222939e-07,7.8638851416472e-07,-1.9058263193534e-07,-16.445992536654,48.904997399471995,0.78246582360359,0.81782407407407,50400.0,1,1100.0,530.0,0.2,17.0
1183,25524000,295.41666666667004,-0.00024680254859987,0.00028920911251654,-4.2406563916665005e-05,-5.9976997949971e-07,7.9190171699496e-07,-1.9213173749526e-07,-16.44520294296,48.998894392702,0.7914100794771701,0.82060185185185,50400.0,1,1100.0,530.0,0.2,17.0
1187,25610400,296.41666666667004,-0.0002474508147204,0.0002899672103447,-4.2516395624297995e-05,-6.0375112486029e-07,7.9744056217134e-07,-1.9368943731105e-07,-16.44441497214,49.092750947818004,0.8003503523732098,0.82337962962963,50400.0,1,1100.0,530.0,0.2,17.0
1191,25696800,297.41666666667004,-0.00024809874216621003,0.0002907249563242,-4.2626214157987e-05,-6.0774935967078e-07,8.0300511788741e-07,-1.9525575821663e-07,-16.443627625879998,49.186538804621,0.8092803236938999,0.82615740740741,50400.0,1,1100.0,530.0,0.2,17.0
1195,25783200,298.41666666667004,-0.00024874633093266,0.00029148235047051,-4.2736019537847996e-05,-6.117647160414e-07,8.085954362004001e-07,-1.9683072015899e-07,-16.442838846738997,49.280321251684,0.81821613663563,0.8289351851851899,50400.0,1,1100.0,530.0,0.2,17.0
1199,25869600,299.41666666667004,-0.00024939358354403,0.00029223939494073,-4.2845811396701e-05,-6.1579724305766e-07,8.142115990255e-07,-1.9841435596785e-07,-16.442051662767,49.374033401258,0.82714050141099,0.83171296296296,50400.0,1,1100.0,530.0,0.2,17.0
1203,25956000,300.41666666667004,-0.00025004050094728,0.00029299609026628,-4.2955589319003005e-05,-6.198469849608799e-07,8.198536793498801e-07,-2.0000669438900001e-07,-16.441265322975,49.467707535947,0.83606217229479,0.83449074074074,50400.0,1,1100.0,530.0,0.2,17.0
1207,26042400,301.41666666667004,-0.00025068708289936,0.00029375243659787996,-4.306535369852e-05,-6.2391397939177e-07,8.2552173920708e-07,-2.0160775981531e-07,-16.440479734449,49.561317548171,0.8449741996315899,0.83726851851852,50400.0,1,1100.0,530.0,0.2,17.0
1211,26128800,302.41666666667004,-0.00025133333081897997,0.00029450843542797,-4.3175104608995e-05,-6.279982709843701e-07,8.312158517363599e-07,-2.0321758075199e-07,-16.439693266694,49.65489186241901,0.85388494343219,0.8400462962963,50400.0,1,1100.0,530.0,0.2,17.0
1215,26215200,303.41666666667004,-0.00025197924547695,0.00029526408735174,-4.3284841874792e-05,-6.320998940674501e-07,8.3693607378545e-07,-2.0483617971800999e-07,-16.438906645248,49.748453772291,0.8627991020864699,0.84282407407407,50400.0,1,1100.0,530.0,0.2,17.0
1219,26301600,304.41666666667004,-0.00025262482948648,0.00029601939540825,-4.3394565921765e-05,-6.3621890450589e-07,8.4268249756636e-07,-2.0646359306047002e-07,-16.438120666961,49.841946710829,0.87170288381209,0.84560185185185,50400.0,1,1100.0,530.0,0.2,17.0
1223,26388000,305.41666666667004,-0.00025327008188563997,0.00029677435829763,-4.3504276411988e-05,-6.4035531595819e-07,8.4845514367022e-07,-2.0809982771203e-07,-16.437335453779,49.935396437681,0.8806026416086601,0.84837962962963,50400.0,1,1100.0,530.0,0.2,17.0
1227,26474400,306.41666666667004,-0.00025391500444776,0.00029752897808627004,-4.3613973638511e-05,-6.4450919560545e-07,8.5425412461122e-07,-2.0974492900577e-07,-16.43654924445,50.02885757571,0.88951198785892,0.85115740740741,50400.0,1,1100.0,530.0,0.2,17.0
1231,26560800,307.41666666667004,-0.00025455959942742996,0.00029828325713653,-4.3723657709098e-05,-6.4868057455462e-07,8.600794905120899e-07,-2.1139891595748e-07,-16.435764856859,50.122230697388,0.89840603885137,0.85393518518519,50400.0,1,1100.0,530.0,0.2,17.0
1235,26647200,308.41666666667004,-0.00025520386706798,0.00029903719468887,-4.3833327620884e-05,-6.5286950251324e-07,8.6593132480865e-07,-2.1306182229542e-07,-16.434980268666,50.215563605449,0.9072967689256601,0.85671296296296,50400.0,1,1100.0,530.0,0.2,17.0
1239,26733600,309.41666666667004,-0.00025584780849896,0.00029979079190847995,-4.3942983409514e-05,-6.5707604222255e-07,8.7180973231446e-07,-2.1473369009191e-07,-16.434195314631,50.308851127769,0.9161834521171899,0.8594907407407401,50400.0,1,1100.0,530.0,0.2,17.0
1243,26820000,310.41666666667004,-0.0002564914224805,0.00030054404834328,-4.4052625862781e-05,-6.6130018509809e-07,8.7771469538636e-07,-2.1641451028827e-07,-16.433412216295,50.402079258780006,0.9250612940034699,0.86226851851852,50400.0,1,1100.0,530.0,0.2,17.0
1247,26906400,311.41666666667004,-0.00025713471001581,0.00030129696465829,-4.4162254642485e-05,-6.655420012760999e-07,8.8364633144415e-07,-2.1810433016806e-07,-16.432629288827,50.495269783622,0.93393713140521,0.8650462962963,50400.0,1,1100.0,530.0,0.2,17.0
1251,26992800,312.41666666667004,-0.00025777767252679,0.00030204954166376,-4.4271869136977e-05,-6.6980153847064e-07,8.896047201593399e-07,-2.198031816887e-07,-16.43184483855,50.588442980472,0.9428161219027901,0.86782407407407,50400.0,1,1100.0,530.0,0.2,17.0
1255,27079200,313.41666666667004,-0.00025842031165554,0.00030280178130712,-4.4381469651582e-05,-6.7407882869047e-07,8.9558991336691e-07,-2.2151108467644e-07,-16.431061625995,50.681565592154996,0.9516882174666801,0.87060185185185,50400.0,1,1100.0,530.0,0.2,17.0
1259,27165600,314.41666666667004,-0.00025906262907473,0.00030355368521053,-4.4491056135797e-05,-6.7837392844162e-07,9.016020052379999e-07,-2.2322807679639002e-07,-16.430279161401,50.774641463342,0.96055554657785,0.87337962962963,50400.0,1,1100.0,530.0,0.2,17.0
1263,27252000,315.41666666667004,-0.00025970462499428,0.00030430525364803,-4.4600628653745e-05,-6.8268687449002e-07,9.0764105588868e-07,-2.2495418139865999e-07,-16.429497434601,50.867675454769,0.9694192299230601,0.87615740740741,50400.0,1,1100.0,530.0,0.2,17.0
1267,27338400,316.41666666667004,-0.00026034629909903,0.0003050564861459,-4.4710187046871004e-05,-6.8701769923943e-07,9.1370711864442e-07,-2.2668941940499e-07,-16.428715081324,50.96065139927,0.97827528715557,0.87893518518519,50400.0,1,1100.0,530.0,0.2,17.0
1271,27424800,317.41666666667004,-0.00026098765390391,0.00030580738525802997,-4.4819731354118e-05,-6.9136645900155e-07,9.198002868438e-07,-2.2843382784225002e-07,-16.427934018766,51.053591568432,0.9871290272834901,0.88171296296296,50400.0,1,1100.0,530.0,0.2,17.0
1275,27511200,318.41666666667004,-0.00026162868855809,0.00030655795024174,-4.4929261683655e-05,-6.9573318042246e-07,9.2592060384468e-07,-2.3018742342222e-07,-16.427153287981998,51.146522134047004,0.99598719488345,0.88449074074074,50400.0,1,1100.0,530.0,0.2,17.0
1279,27597600,319.41666666667004,-0.00026226940473603996,0.00030730818293522004,-4.5038778199178e-05,-7.001178949587e-07,9.3206812057199e-07,-2.3195022561329003e-07,-16.426372777992,51.239354467171005,1.0048279614515,0.88726851851852,50400.0,1,1100.0,530.0,0.2,17.0
1283,27684000,320.41666666667004,-0.00026290980144307003,0.00030805808142528,-4.5148279982214004e-05,-7.045206503815e-07,9.382429173418501e-07,-2.3372226696034999e-07,-16.425593481843,51.332163911692,1.0136691019926,0.8900462962962999,50400.0,1,1100.0,530.0,0.2,17.0
1287,27770400,321.41666666667004,-0.00026354988176782,0.00030880764928684,-4.5257767519021e-05,-7.0894151843675e-07,9.444451136746799e-07,-2.3550359523793002e-07,-16.424813016031,51.424984835629,1.0225203905596,0.89282407407407,50400.0,1,1100.0,530.0,0.2,17.0
1291,27856800,322.41666666667004,-0.00026418964598714,0.00030955688747191004,-4.5367241484772e-05,-7.133804913309901e-07,9.5067469287127e-07,-2.3729420154028001e-07,-16.424032634507,51.51771767333901,1.0313565485363,0.89560185185185,50400.0,1,1100.0,530.0,0.2,17.0
1295,27943200,323.41666666667004,-0.00026482909450017,0.00031030579544802004,-4.5476700947841995e-05,-7.1783764233795e-07,9.569317787394e-07,-2.3909413640145e-07,-16.423252697286998,51.61041983585999,1.0401919380929001,0.89837962962963,50400.0,1,1100.0,530.0,0.2,17.0
1299,28029600,324.41666666667004,-0.00026546822760142,0.00031105437338322,-4.5586145781808e-05,-7.2231300845251e-07,9.6321643245973e-07,-2.4090342400722e-07,-16.422474812476,51.703057305592004,1.0490175370379,0.90115740740741,50400.0,1,1100.0,530.0,0.2,17.0
1303,28116000,325.41666666667004,-0.00026610704750236003,0.00031180262327342004,-4.5695575771061e-05,-7.2680666503568e-07,9.695287801647301e-07,-2.4272211512904e-07,-16.421696022991,51.795677418504,1.0578463156859,0.90393518518519,50400.0,1,1100.0,530.0,0.2,17.0
1307,28202400,326.41666666667004,-0.0002667455548154,0.00031255054581457,-4.5804990999178e-05,-7.313186330155099e-07,9.7586885513145e-07,-2.4455022211595004e-07,-16.420918074235,51.88824235781,1.0666674872086,0.90671296296296,50400.0,1,1100.0,530.0,0.2,17.0
1311,28288800,327.41666666667004,-0.00026738374884154,0.00031329814056432,-4.5914391722787e-05,-7.358489404663299e-07,9.822367029257099e-07,-2.4638776245939e-07,-16.420139106761,51.980768620273,1.075486466531,0.90949074074074,50400.0,1,1100.0,530.0,0.2,17.0
1315,28375200,328.41666666667004,-0.00026802163141228,0.00031404540894249,-4.6023777530207004e-05,-7.403976369556999e-07,9.8863240589583e-07,-2.4823476894013e-07,-16.419362875721,52.073258582256,1.0843026804006,0.91226851851852,50400.0,1,1100.0,530.0,0.2,17.0
1319,28461600,329.41666666667004,-0.00026865920205974,0.00031479235076192996,-4.6133148702197e-05,-7.449647655984e-07,9.9505603547822e-07,-2.5009126987982e-07,-16.418585499131,52.165684618559,1.093109962062,0.9150462962963,50400.0,1,1100.0,530.0,0.2,17.0
1323,28548000,330.41666666667004,-0.00026929646204551,0.00031553896681306003,-4.6242504767546e-05,-7.4955036601196e-07,1.0015076571615e-06,-2.5195729114957e-07,-16.417810002232002,52.258082633244,1.1019164357809998,0.91782407407407,50400.0,1,1100.0,530.0,0.2,17.0
1327,28634400,331.41666666667004,-0.00026993341202771,0.00031628525781238,-4.6351845784673e-05,-7.5415446556331e-07,1.0079873151355e-06,-2.5383284957223e-07,-16.417032993512002,52.350448685804004,1.1107226807091,0.92060185185185,50400.0,1,1100.0,530.0,0.2,17.0
1331,28720800,332.41666666667004,-0.00027057005239925,0.00031703122440987003,-4.6461172010624e-05,-7.5877712106596e-07,1.0144951044421e-06,-2.557179833761e-07,-16.416256701311,52.442764328313,1.1195228920846,0.92337962962963,50400.0,1,1100.0,530.0,0.2,17.0
1335,28807200,333.41666666667004,-0.00027120638362055,0.00031777686682405,-4.6570483203495e-05,-7.6341836970344e-07,1.021031086142e-06,-2.5761271643854e-07,-16.415482226275998,52.535012767664,1.1283123733773,0.92615740740741,50400.0,1,1100.0,530.0,0.2,17.0
1339,28893600,334.41666666667004,-0.0002718424061357,0.0003185221859671,-4.6679779831405e-05,-7.6807823626324e-07,1.0275952999728e-06,-2.5951706370954e-07,-16.414705763096002,52.627271013089,1.1371123308306998,0.92893518518519,50400.0,1,1100.0,530.0,0.2,17.0
1343,28980000,335.41666666667004,-0.00027247812224257,0.00031926718308793997,-4.6789060845377004e-05,-7.727568174573e-07,1.0341879096002e-06,-2.6143109214295e-07,-16.413931158363,52.719455189198996,1.1458997756073999,0.93171296296296,50400.0,1,1100.0,530.0,0.2,17.0
1347,29066400,336.41666666667004,-0.00027311353063262,0.00032001185757887996,-4.6898326946259004e-05,-7.774540721967801e-07,1.0408088416557e-06,-2.6335476945886996e-07,-16.413156564043,52.811596182490995,1.1546835981876,0.93449074074074,50400.0,1,1100.0,530.0,0.2,17.0
1351,29152800,337.41666666667004,-0.00027374863474797996,0.00032075621232767004,-4.7007577579692e-05,-7.8217015024497e-07,1.0474583504001998e-06,-2.6528820015519e-07,-16.412383802326,52.903696473624,1.1634633845878999,0.93726851851852,50400.0,1,1100.0,530.0,0.2,17.0
1355,29239200,338.41666666667004,-0.00027438343174387004,0.00032150024521293997,-4.7116813469076e-05,-7.8690497503762e-07,1.0541363020453001e-06,-2.6723132700763996e-07,-16.411608588423,52.995766410016,1.1722433539294,0.9400462962963,50400.0,1,1100.0,530.0,0.2,17.0
1359,29325600,339.41666666667004,-0.00027501792501216004,0.00032224395842603997,-4.7226033413883e-05,-7.9165867496237e-07,1.0608429142233e-06,-2.6918423926094e-07,-16.410838060245,53.087754039277,1.1810082112884,0.94282407407407,50400.0,1,1100.0,530.0,0.2,17.0
1363,29412000,340.41666666667004,-0.00027565211439289,0.00032298735215367,-4.7335237760779e-05,-7.9643126464165e-07,1.0675782095693002e-06,-2.7114694492765997e-07,-16.410064546487,53.179758699642,1.1897855300238,0.94560185185185,50400.0,1,1100.0,530.0,0.2,17.0
1367,29498400,341.41666666667004,-0.00027628599974961,0.00032373042667831,-4.7444426928696004e-05,-8.012227899317099e-07,1.0743422643005e-06,-2.7311947436873996e-07,-16.409291841513,53.271692442354,1.1985516696185001,0.94837962962963,50400.0,1,1100.0,530.0,0.2,17.0
1371,29584800,342.41666666667004,-0.00027691958171679,0.00032447318196798,-4.7553600251191e-05,-8.0603328836808e-07,1.0811351402985e-06,-2.7510185193040006e-07,-16.408519499447,53.3635866004,1.2073147498712,0.95115740740741,50400.0,1,1100.0,530.0,0.2,17.0
1375,29671200,343.41666666667004,-0.00027755286115652004,0.00032521561890659,-4.7662757750063e-05,-8.1086281353849e-07,1.087956927172e-06,-2.7709411363351e-07,-16.407747271573,53.455423139165,1.2160705024299,0.9539351851851899,50400.0,1,1100.0,530.0,0.2,17.0
1379,29757600,344.41666666667,-0.00027818583973379,0.00032595773901543997,-4.7771899281654e-05,-8.157114107626899e-07,1.0948076995202e-06,-2.7909628875749e-07,-16.406975753171,53.547258005417994,1.2248325442086,0.95671296296296,50400.0,1,1100.0,530.0,0.2,17.0
1383,29844000,345.41666666667,-0.00027881851676897,0.00032669954168735,-4.7881024918387e-05,-8.2057912129818e-07,1.1016875259351002e-06,-2.8110840463689e-07,-16.406203754354,53.639023223554,1.2335844600448,0.95949074074074,50400.0,1,1100.0,530.0,0.2,17.0
1387,29930400,346.41666666667,-0.00027945089326067,0.00032744102812871,-4.7990134868039005e-05,-8.2546594457249e-07,1.1085964027133999e-06,-2.8313045814095003e-07,-16.405431586305,53.730764851519005,1.2423370558478999,0.96226851851852,50400.0,1,1100.0,530.0,0.2,17.0
1391,30016800,347.41666666667,-0.00028008296978932997,0.00032818219880499,-4.8099229015658e-05,-8.3037196841224e-07,1.1155344775158e-06,-2.8516250910356004e-07,-16.404661035019,53.822444552317,1.2510809195776,0.9650462962963,50400.0,1,1100.0,530.0,0.2,17.0
1395,30103200,348.41666666667,-0.00028071474717268,0.00032892305425507,-4.8208307082390003e-05,-8.3529721756759e-07,1.1225017913843e-06,-2.8720457381671e-07,-16.403889904257,53.914072062833995,1.2598187247705002,0.96782407407407,50400.0,1,1100.0,530.0,0.2,17.0
1399,30189600,349.41666666667,-0.0002813462266797,0.00032966359555605,-4.8317368876346994e-05,-8.402417481111e-07,1.1294984371598e-06,-2.8925668904869e-07,-16.403120159885002,54.005705203892,1.2685646550704,0.97060185185185,50400.0,1,1100.0,530.0,0.2,17.0
1403,30276000,350.41666666667,-0.00028197740707862996,0.00033040382158102,-4.8426414502384e-05,-8.452055736224301e-07,1.1365244367392001e-06,-2.9131886311679e-07,-16.402351589957,54.097259820512,1.2772975390285,0.97337962962963,50400.0,1,1100.0,530.0,0.2,17.0
1407,30362400,351.41666666667,-0.00028260829009705,0.00033114373412378,-4.8535444026738e-05,-8.5018876036732e-07,1.1435799001599e-06,-2.933911397926e-07,-16.401581650839,54.188784275698005,1.2860300810091,0.97615740740741,50400.0,1,1100.0,530.0,0.2,17.0
1411,30448800,352.41666666667,-0.00028323887629199,0.00033188333323285,-4.8644456940859e-05,-8.5519137660079e-07,1.150664941503e-06,-2.9547356490224e-07,-16.400811701348,54.280260729020995,1.2947579464228,0.97893518518519,50400.0,1,1100.0,530.0,0.2,17.0
1415,30535200,353.41666666667,-0.00028386916601888,0.00033262261971459,-4.8753453695704e-05,-8.602134096167101e-07,1.1577795376971e-06,-2.9756612808037e-07,-16.400043260899,54.37170308848,1.3034832489001,0.98171296296296,50400.0,1,1100.0,530.0,0.2,17.0
1419,30621600,354.41666666667,-0.00028449916109649,0.00033336159445604,-4.8862433359553e-05,-8.6525494752153e-07,1.1649238376674e-06,-2.9966889014591e-07,-16.399273932587,54.463093493562,1.3122037108355,0.9844907407407401,50400.0,1,1100.0,530.0,0.2,17.0
1423,30708000,355.41666666667,-0.00028512885962408,0.0003341002564288,-4.8971396804728e-05,-8.703159911710301e-07,1.1720978395487e-06,-3.017818483777e-07,-16.398507623471,54.554451981964995,1.3209212326778002,0.98726851851852,50400.0,1,1100.0,530.0,0.2,17.0
1427,30794400,356.41666666667,-0.00028575826395158997,0.00033483860772128997,-4.9080343769704e-05,-8.7539660930394e-07,1.1793016585329999e-06,-3.0390504922905996e-07,-16.397738880588,54.645771988041,1.3296375779134,0.9900462962963,50400.0,1,1100.0,530.0,0.2,17.0
1431,30880800,357.41666666667,-0.00028638737558764,0.0003355766495416,-4.9189273953953e-05,-8.8049684225893e-07,1.1865353616693998e-06,-3.0603851941042e-07,-16.396971136894,54.737052441361996,1.3383505165358,0.99282407407407,50400.0,1,1100.0,530.0,0.2,17.0
1435,30967200,358.41666666667,-0.0002870161955929,0.00033631438280763,-4.9298187214737e-05,-8.8561674501088e-07,1.1937990403186e-06,-3.0818229530767996e-07,-16.396205077651,54.828280279842,1.3470563799551,0.99560185185185,50400.0,1,1100.0,530.0,0.2,17.0
1439,31053600,359.41666666667,-0.00028764472248551,0.00033705180612222,-4.9407083636716e-05,-8.907563324066401e-07,1.2010927183453998e-06,-3.1033638593877003e-07,-16.395437748987998,54.919466031869,1.3557595872018,0.99837962962963,50400.0,1,1100.0,530.0,0.2,17.0
1443,31140000,360.41666666667,-0.00028827295776805,0.00033778892102596003,-4.9515963257911e-05,-8.9591566897066e-07,1.2084165033222e-06,-3.1250083435156e-07,-16.394672589549,55.010608413319,1.3644584208500001,1.0011574074074001,50400.0,1,1100.0,530.0,0.2,17.0
1447,31226400,361.41666666667,-0.00028890089807994,0.00033852572365617004,-4.9624825576224e-05,-9.0109477327223e-07,1.215770426496e-06,-3.1467565322372e-07,-16.393905999792,55.101725262742995,1.3731577003150999,1.0039351851852,50400.0,1,1100.0,530.0,0.2,17.0
1450,31248000,361.66666666667,-0.00028890089807994,0.00033852572365617004,-4.9624825576224e-05,-9.0109477327223e-07,1.215770426496e-06,-3.1467565322372e-07,0.49953158307931,76.131846478649,43.243010397507,1.0046296296296,90000.0,3,25.0,25.0,0.1,0.1
1454,31348800,362.83333333333,-0.00028894300945784,0.00033857486717794,-4.9631857720108005e-05,-9.014283852429e-07,1.2162384457994e-06,-3.1481006055651997e-07,-16.39388155062,55.107697618936996,1.3737459623912,1.0078703703704,50400.0,1,1100.0,530.0,0.2,17.0
1458,31435200,363.83333333333,-0.00028957060001092,0.00033931129569995,-4.9740695689031e-05,-9.066285705049401e-07,1.2236245215542e-06,-3.1699595104929e-07,-16.393092356127,55.198597533081,1.3823636977486002,1.0106481481481,50400.0,1,1100.0,530.0,0.2,17.0
1462,31521600,364.83333333333,-0.00029019790036545,0.00034004741743465,-4.9849517069202e-05,-9.1184859348066e-07,1.2310408492956e-06,-3.1919225581491e-07,-16.392327333419,55.289617226996,1.3910525712722,1.0134259259259,50400.0,1,1100.0,530.0,0.2,17.0
1466,31608000,365.83333333333,-0.00029082490913752,0.00034078323075997997,-4.995832162246e-05,-9.1708851234951e-07,1.2384875270162e-06,-3.2139901466672e-07,-16.391562792268,55.380596651691,1.3997380157335002,1.0162037037037,50400.0,1,1100.0,530.0,0.2,17.0
1470,31694400,366.83333333333,-0.0002914516313705,0.00034151874057657003,-5.0067109206071005e-05,-9.2234839654137e-07,1.24596466966e-06,-3.2361627311863e-07,-16.390798720035,55.471532731622,1.4084200499555,1.0189814814815,50400.0,1,1100.0,530.0,0.2,17.0
1474,31780800,367.83333333333,-0.0002920780644398,0.00034225394414123,-5.017587970143e-05,-9.2762825180518e-07,1.2534722860284e-06,-3.2584403422326e-07,-16.390035377962,55.562417307480004,1.4170956323945,1.0217592592593001,50400.0,1,1100.0,530.0,0.2,17.0
1478,31867200,368.83333333333,-0.00029270420887413,0.00034298884244648,-5.0284633572356e-05,-9.329281502524099e-07,1.2610104967586e-06,-3.280823465062e-07,-16.389272088005,55.653293534084995,1.4257760641233,1.0245370370370002,50400.0,1,1100.0,530.0,0.2,17.0
1482,31953600,369.83333333333,-0.00029333006549967997,0.00034372343389945,-5.0393368399771e-05,-9.382481452237899e-07,1.2685793926522e-06,-3.3033124742842004e-07,-16.388508973817,55.744112059627,1.4344488684579,1.0273148148148,50400.0,1,1100.0,530.0,0.2,17.0
1486,32040000,370.83333333333,-0.00029395563491297,0.0003444577218861,-5.0502086973138e-05,-9.4358823497747e-07,1.2761789664221001e-06,-3.3259073144465e-07,-16.387745959761,55.834880112114,1.443116143431,1.0300925925925999,50400.0,1,1100.0,530.0,0.2,17.0
1490,32126400,371.83333333333,-0.00029458091515598,0.00034519170269189,-5.0610787535914e-05,-9.4894848044981e-07,1.2838093219799e-06,-3.3486084153013e-07,-16.386982827952,55.925609623766,1.4517807516673003,1.0328703703703999,50400.0,1,1100.0,530.0,0.2,17.0
1494,32212800,372.83333333333,-0.00029520591399244,0.00034592538432623,-5.0719470333791e-05,-9.5432896215664e-07,1.2914705924016e-06,-3.3714163024493e-07,-16.386220843066003,56.016319725181,1.4604470813508001,1.0356481481481,50400.0,1,1100.0,530.0,0.2,17.0
1498,32299200,373.83333333333,-0.0002958306267651,0.00034665876246173997,-5.0828135696639e-05,-9.597296761460899e-07,1.2991627700937e-06,-3.3943309394756e-07,-16.385458880743002,56.106967078975,1.4691049622581003,1.0384259259259,50400.0,1,1100.0,530.0,0.2,17.0
1502,32385600,374.83333333333,-0.00029645505481467997,0.00034739183765868,-5.0936782844004e-05,-9.651506868761498e-07,1.3068859636458e-06,-3.4173527676959995e-07,-16.384698012803,56.197554824206,1.4777547183727,1.0412037037037,50400.0,1,1100.0,530.0,0.2,17.0
1506,32472000,375.83333333333,-0.0002970791984807,0.00034812461089328,-5.1045412412577e-05,-9.705920486278401e-07,1.3146402625964e-06,-3.4404821396854e-07,-16.383934890485,56.288161841098,1.4864165298933998,1.0439814814815,50400.0,1,1100.0,530.0,0.2,17.0
1510,32558400,376.83333333333,-0.00029770305618852,0.00034885708090849,-5.1154024719976004e-05,-9.7605374562039e-07,1.3224256388042e-06,-3.4637189318382e-07,-16.383173895978,56.378668280125,1.4950603283228001,1.0467592592593,50400.0,1,1100.0,530.0,0.2,17.0
1514,32644800,377.83333333333,-0.00029832663029563997,0.00034958924886915,-5.1262618573506e-05,-9.8153586958499e-07,1.3302422468921998e-06,-3.4870637730724e-07,-16.382414408463,56.469169355480005,1.5037081390723002,1.049537037037,50400.0,1,1100.0,530.0,0.2,17.0
1518,32731200,378.83333333333,-0.00029894992094088,0.00035032111585249,-5.1371194911611e-05,-9.8703844101173e-07,1.3380901193256e-06,-3.5105167831390004e-07,-16.3816527993,56.559631463954,1.5123550426365,1.0523148148148,50400.0,1,1100.0,530.0,0.2,17.0
1522,32817600,379.83333333333,-0.00029957292899324,0.00035105268125676,-5.1479752263520003e-05,-9.925615387998001e-07,1.3459693900416e-06,-3.5340785124183e-07,-16.380893537027,56.650030524453,1.5209915371988,1.0550925925926,50400.0,1,1100.0,530.0,0.2,17.0
1526,32904000,380.83333333333,-0.00030019565528649,0.00035178394674895,-5.1588291462456e-05,-9.9810517149154e-07,1.3538800702955e-06,-3.5577489880398e-07,-16.380133907816997,56.740402916175,1.5296289670859,1.0578703703704,50400.0,1,1100.0,530.0,0.2,17.0
1530,32990400,381.83333333333,-0.00030081809878437,0.0003525149112598,-5.1696812475438e-05,-1.0036693975679e-06,1.3618222584824e-06,-3.5815286091452e-07,-16.379373985142,56.830711740283,1.5382575647852001,1.0606481481480998,50400.0,1,1100.0,530.0,0.2,17.0
1534,33076800,382.83333333333,-0.00030144026087363,0.00035324557674234,-5.1805315868705e-05,-1.009254229219e-06,1.3697959724505e-06,-3.6054174323146e-07,-16.378614286488,56.921022457923,1.546892986058,1.0634259259259,50400.0,1,1100.0,530.0,0.2,17.0
1538,33163200,383.83333333333,-0.00030206214235778997,0.0003539759417931,-5.1913799435308e-05,-1.0148597558574e-06,1.3778013658276e-06,-3.6294160997023003e-07,-16.377855300255,57.011267086518004,1.5555192817566001,1.0662037037037,50400.0,1,1100.0,530.0,0.2,17.0
1542,33249600,384.83333333333,-0.00030268374253885,0.00035470600820057996,-5.2022265661732004e-05,-1.0204859823011998e-06,1.3858384410521e-06,-3.6535245875082996e-07,-16.377096389789,57.101476209976,1.5641437015369999,1.0689814814815,50400.0,1,1100.0,530.0,0.2,17.0
1546,33336000,385.83333333333,-0.00030330506120307995,0.00035543577497694,-5.2130713773866e-05,-1.0261329421934999e-06,1.3939072553383002e-06,-3.6777431314479e-07,-16.37633834347,57.191628203312,1.5727600615595,1.0717592592593002,50400.0,1,1100.0,530.0,0.2,17.0
1550,33422400,386.83333333333,-0.00030392610125022,0.00035616524428594,-5.2239143035721e-05,-1.0318007077049e-06,1.4020079294987e-06,-3.7020722179381e-07,-16.375581317837,57.281771243604005,1.581381859911,1.074537037037,50400.0,1,1100.0,530.0,0.2,17.0
1554,33508800,387.83333333333,-0.00030454686174525,0.00035689441530192996,-5.2347553556675e-05,-1.0374893033319e-06,1.4101405039389999e-06,-3.7265120060716e-07,-16.374823502076,57.371854314816,1.5899947551411,1.0773148148148,50400.0,1,1100.0,530.0,0.2,17.0
1558,33595200,388.83333333333,-0.00030516734429571,0.00035762328887101,-5.2455944575292e-05,-1.0431988060660998e-06,1.4183051086943999e-06,-3.7510630262828e-07,-16.374067220804,57.46190142599399,1.5986058825619998,1.0800925925926,50400.0,1,1100.0,530.0,0.2,17.0
1562,33681600,389.83333333333,-0.00030578754692508,0.00035835186310716,-5.2564316182083005e-05,-1.0489292484821998e-06,1.4265017976304e-06,-3.7757254914822e-07,-16.37331021759,57.551895583619995,1.6072107691021,1.0828703703704,50400.0,1,1100.0,530.0,0.2,17.0
1566,33768000,390.83333333333,-0.00030640747103362,0.00035908013937445,-5.2672668340828996e-05,-1.0546806797073e-06,1.4347306528279e-06,-3.8004997312062996e-07,-16.372553393773998,57.641847514546,1.6158121334509998,1.0856481481481,50400.0,1,1100.0,530.0,0.2,17.0
1570,33854400,391.83333333333,-0.00030702711731814,0.00035980811937204,-5.2781002053892e-05,-1.0604530814134001e-06,1.4429916395308e-06,-3.8253855811747997e-07,-16.371798040429002,57.731793522580006,1.6244183730443,1.0884259259259002,50400.0,1,1100.0,530.0,0.2,17.0
1574,33940800,392.83333333333,-0.00030764648484315,0.00036053580196022,-5.2889317117073e-05,-1.0662465159361e-06,1.4512848624857e-06,-3.8503834654965e-07,-16.371042330817,57.821682558468,1.6330176510851002,1.0912037037037,50400.0,1,1100.0,530.0,0.2,17.0
1578,34027200,393.83333333333,-0.00030826557591264,0.00036126318831838,-5.2997612405738e-05,-1.0720610591353001e-06,1.4596104502916e-06,-3.8754939115637e-07,-16.370287401137,57.911510172069995,1.6416084427517,1.0939814814814999,50400.0,1,1100.0,530.0,0.2,17.0
1582,34113600,394.83333333333,-0.00030888438997417003,0.00036199027930378997,-5.3105889329625e-05,-1.0778967099042e-06,1.4679683982713e-06,-3.9007168836715996e-07,-16.369530782366,58.001333342468,1.6502055355786,1.0967592592593,50400.0,1,1100.0,530.0,0.2,17.0
1586,34200000,395.83333333333,-0.00030950293013725,0.00036271707624315,-5.3214146105899e-05,-1.0837535706923e-06,1.4763588795836e-06,-3.9260530889129e-07,-16.368775945539998,58.091090714601,1.6587930277596,1.0995370370370001,50400.0,1,1100.0,530.0,0.2,17.0
1590,34286400,396.83333333333,-0.00031012119338146,0.00036344357749869,-5.3322384117222e-05,-1.0896316322918002e-06,1.4847818760835e-06,-3.9515024379169e-07,-16.368022834846002,58.180806000240004,1.6673760599363,1.1023148148148,50400.0,1,1100.0,530.0,0.2,17.0
1594,34372800,397.83333333333,-0.00031073918281322,0.00036416978590528997,-5.3430603092077e-05,-1.0955309561339e-06,1.4932374904395e-06,-3.9770653430562003e-07,-16.367268447142,58.270463807207,1.6759521939158002,1.1050925925926,50400.0,1,1100.0,530.0,0.2,17.0
1598,34459200,398.83333333333,-0.00031135689748826,0.00036489569997026,-5.3538802481997e-05,-1.1014515796453002e-06,1.5017257853862e-06,-4.0027420574091e-07,-16.366514399853,58.36012021997,1.6845349153522,1.1078703703704,50400.0,1,1100.0,530.0,0.2,17.0
1602,34545600,399.83333333333,-0.00031197433848497,0.00036562132048159,-5.3646981996614e-05,-1.1073935629766e-06,1.5102468625197e-06,-4.0285329954315e-07,-16.365761333522002,58.449736666711,1.6931143555888,1.1106481481481,50400.0,1,1100.0,530.0,0.2,17.0
1606,34632000,400.83333333333,-0.0003125915054325,0.00036634664770007996,-5.3755142267578004e-05,-1.1133569396388e-06,1.518800775491e-06,-4.0544383585222997e-07,-16.365008779379,58.539261742755,1.7016780105036002,1.1134259259258998,50400.0,1,1100.0,530.0,0.2,17.0
1610,34718400,401.83333333333,-0.00031320839838464,0.0003670716808261,-5.3863282441467e-05,-1.1193417469853001e-06,1.5273875878633002e-06,-4.0804584087797e-07,-16.364255892284998,58.628788825011995,1.7102492980238997,1.1162037037037,50400.0,1,1100.0,530.0,0.2,17.0
1614,34804800,402.83333333333,-0.00031382501704798,0.00036779641963302997,-5.3971402585049e-05,-1.125348037215e-06,1.5360073870191002e-06,-4.1065934980408003e-07,-16.36350367293,58.718298602440996,1.7188219855699,1.1189814814815,50400.0,1,1100.0,530.0,0.2,17.0
1618,34891200,403.83333333333,-0.00031444136356745,0.00036852086688361004,-5.4079503316163e-05,-1.1313758206403e-06,1.5446601867466003e-06,-4.1328436610628e-07,-16.362751943461,58.807731633949004,1.7273839120563999,1.1217592592593,50400.0,1,1100.0,530.0,0.2,17.0
1622,34977600,404.83333333333,-0.00031505743775345,0.00036924502138329,-5.4187583629838e-05,-1.1374251871003e-06,1.5533461401632e-06,-4.1592095306290003e-07,-16.362001150767,58.897127992775005,1.7359422866542,1.124537037037,50400.0,1,1100.0,530.0,0.2,17.0
1626,35064000,405.83333333333,-0.00031567323781795,0.00036996888167596003,-5.4295643858013e-05,-1.143496153171e-06,1.5620652744770001e-06,-4.1856912130602004e-07,-16.361249379953,58.986474019431,1.7444957734284,1.1273148148148,50400.0,1,1100.0,530.0,0.2,17.0
1630,35150400,406.83333333333,-0.00031628876886787997,0.00037069245339349,-5.440368452561e-05,-1.1495887699454e-06,1.570817672723e-06,-4.2122890277766e-07,-16.360497513203,59.07582174634499,1.7530567484888997,1.1300925925926002,50400.0,1,1100.0,530.0,0.2,17.0
1634,35236800,407.83333333333,-0.00031690402896546004,0.00037141573351859,-5.4511704553125e-05,-1.1557030736645001e-06,1.5796033958807e-06,-4.2390032221620996e-07,-16.359748888425,59.165105309911006,1.7616072483822,1.1328703703704,50400.0,1,1100.0,530.0,0.2,17.0
1638,35323200,408.83333333333,-0.00031751901832962996,0.00037213872294444,-5.4619704614809004e-05,-1.1618390955383001e-06,1.5884224953775e-06,-4.265833998392e-07,-16.358997181775997,59.254321982242004,1.770149885069,1.1356481481481,50400.0,1,1100.0,530.0,0.2,17.0
1642,35409600,409.83333333333,-0.00031813373746488,0.00037286142134877,-5.472768388389e-05,-1.1679969003376e-06,1.5972750803107001e-06,-4.2927817997313e-07,-16.358247459578,59.34353655123,1.7786976062473,1.1384259259259,50400.0,1,1100.0,530.0,0.2,17.0
1646,35496000,410.83333333333,-0.00031874818654017,0.00037358382955504,-5.4835643014867e-05,-1.1741765165699e-06,1.6061611965793998e-06,-4.3198468000944994e-07,-16.35749848671,59.432695795087994,1.7872387290303,1.1412037037037,50400.0,1,1100.0,530.0,0.2,17.0
1650,35582400,411.83333333333,-0.00031936236426366,0.00037430594606867996,-5.4943581805019003e-05,-1.1803779784233e-06,1.6150809025231e-06,-4.3470292409980003e-07,-16.356749226549002,59.521802975153996,1.7957735446212,1.1439814814815,50400.0,1,1100.0,530.0,0.2,17.0
1654,35668800,412.83333333333,-0.00031997627348051,0.00037502777315272,-5.5051499672208996e-05,-1.1866013572139999e-06,1.6240343168246001e-06,-4.3743295961066e-07,-16.355999793668,59.610876579729,1.804307483044,1.1467592592593001,50400.0,1,1100.0,530.0,0.2,17.0
1658,35755200,413.83333333333,-0.00032058991384801,0.00037574931120077,-5.5159397352752005e-05,-1.1928466831022e-06,1.6330214887638e-06,-4.4017480566167e-07,-16.355250535438,59.699933356162006,1.8128443488953998,1.1495370370370002,50400.0,1,1100.0,530.0,0.2,17.0
1662,35841600,414.83333333333,-0.00032120328424526003,0.00037647055822397004,-5.5267273978711e-05,-1.1991140020892e-06,1.6420424973298001e-06,-4.4292849524064e-07,-16.354503097807,59.788949729938004,1.8213760874524,1.1523148148148,50400.0,1,1100.0,530.0,0.2,17.0
1666,35928000,415.83333333333,-0.0003218163863318,0.00037719151596926,-5.537512963745601e-05,-1.2054033200991002e-06,1.6510973487799e-06,-4.4569402868087e-07,-16.353755008596,59.877902619936,1.8299000128599,1.1550925925926,50400.0,1,1100.0,530.0,0.2,17.0
1670,36014400,416.83333333333,-0.00032242922120376,0.00037791218612119,-5.5482964917427e-05,-1.2117147051714e-06,1.6601861569379e-06,-4.4847145176653005e-07,-16.353007381761998,59.966827251986,1.8384241773252,1.1578703703703999,50400.0,1,1100.0,530.0,0.2,17.0
1674,36100800,417.83333333333,-0.00032304179033664,0.00037863256903616,-5.559077869953e-05,-1.2180482123168998e-06,1.6693090154163e-06,-4.5126080309932005e-07,-16.352260755196,60.055681107168,1.846937751379,1.1606481481481001,50400.0,1,1100.0,530.0,0.2,17.0
1678,36187200,418.83333333333,-0.00032365409141016003,0.00037935266335026,-5.5698571940096996e-05,-1.224403870891e-06,1.6784659715926001e-06,-4.5406210070156004e-07,-16.351513054475,60.14455161283001,1.8554617050226,1.1634259259258999,50400.0,1,1100.0,530.0,0.2,17.0
1682,36273600,419.83333333333,-0.00032426612566345,0.00038007247003412996,-5.5806344370680003e-05,-1.2307817212333e-06,1.6876570932401e-06,-4.5687537200679997e-07,-16.350766658401,60.2333251708,1.8639690723306999,1.1662037037037,50400.0,1,1100.0,530.0,0.2,17.0
1686,36360000,420.83333333333,-0.00032487789217564,0.00038079198767177,-5.5914095496135e-05,-1.2371817811815e-06,1.6968824088555e-06,-4.5970062767404004e-07,-16.35001977857,60.322103943152,1.8724841023497,1.1689814814815,50400.0,1,1100.0,530.0,0.2,17.0
1690,36446400,421.83333333333,-0.00032548939508848,0.00038151122010308,-5.6021825014605004e-05,-1.2436041734089e-06,1.7061421248909e-06,-4.6253795148198005e-07,-16.34927528414,60.410817591185996,1.8809894069350999,1.1717592592593,50400.0,1,1100.0,530.0,0.2,17.0
1694,36532800,422.83333333333,-0.00032610063124106003,0.00038223016490277997,-5.6129533661723e-05,-1.2500488536959e-06,1.7154361654193e-06,-4.6538731172339e-07,-16.348529050015,60.499502554534,1.8894948254318003,1.174537037037,50400.0,1,1100.0,530.0,0.2,17.0
1698,36619200,423.83333333333,-0.00032671160165587,0.00038294882352671,-5.6237221870834e-05,-1.2565159266444e-06,1.7247647064339001e-06,-4.6824877978956e-07,-16.347783921336998,60.58816647053099,1.8980013590056002,1.1773148148148,50400.0,1,1100.0,530.0,0.2,17.0
1702,36705600,424.83333333333,-0.0003273223078977,0.00038366719583242,-5.6344887934726e-05,-1.2630054134741e-06,1.7341277832021e-06,-4.7112236972797004e-07,-16.347038482841,60.676774429632,1.9065019342677,1.1800925925926002,50400.0,1,1100.0,530.0,0.2,17.0
1706,36792000,425.83333333333,-0.00032793274914611,0.00038438528190317,-5.6452532757062e-05,-1.2695173340263e-06,1.7435254280753997e-06,-4.7400809404911003e-07,-16.346294044003,60.765341284608,1.9149982238068,1.1828703703704,50400.0,1,1100.0,530.0,0.2,17.0
1710,36878400,426.83333333333,-0.00032854292460397,0.00038510308098945,-5.6560156385487e-05,-1.2760517400508002e-06,1.7529577273051998e-06,-4.7690598725435e-07,-16.345548972867,60.853868381996,1.9234921714817,1.1856481481481,50400.0,1,1100.0,530.0,0.2,17.0
1714,36964800,427.83333333333,-0.00032915283646002005,0.0003858205948052,-5.6667758345177003e-05,-1.2826086826895e-06,1.7624247662534e-06,-4.7981608356393e-07,-16.344806410229,60.942322387267,1.9319741666257,1.1884259259258998,50400.0,1,1100.0,530.0,0.2,17.0
1718,37051200,428.83333333333,-0.00032976248427846,0.00038653782325427996,-5.6775338975823e-05,-1.2891881757977e-06,1.7719265671336998e-06,-4.8273839133605e-07,-16.344061744262,61.030796211219,1.9404690703456,1.1912037037037,50400.0,1,1100.0,530.0,0.2,17.0
1722,37137600,429.83333333333,-0.00033037186973649,0.00038725476733982,-5.6882897603333e-05,-1.2957903232151e-06,1.7814633051198e-06,-4.856729819046899e-07,-16.343317824354997,61.119197743536,1.9489518000739,1.1939814814815,50400.0,1,1100.0,530.0,0.2,17.0
1726,37224000,430.83333333333,-0.00033098099107009,0.00038797142545868,-5.6990434388597e-05,-1.3024151399048e-06,1.7910350042060001e-06,-4.886198643011599e-07,-16.342576174376,61.207582750797,1.9574371997839999,1.1967592592593002,50400.0,1,1100.0,530.0,0.2,17.0
1730,37310400,431.83333333333,-0.0003315898492663,0.00038868779854862,-5.7097949282320996e-05,-1.309062636862e-06,1.8006416810801002e-06,-4.9157904421807e-07,-16.341833282489,61.295878747673996,1.9659075871887999,1.199537037037,50400.0,1,1100.0,530.0,0.2,17.0
1734,37396800,432.83333333333,-0.00033219844755676,0.00038940388951035,-5.7205441953594996e-05,-1.3157328999583e-06,1.8102834811668e-06,-4.945505812085399e-07,-16.341090375905,61.384190402301996,1.9743891247310001,1.2023148148148,50400.0,1,1100.0,530.0,0.2,17.0
1738,37483200,433.83333333333,-0.00033280678025426,0.00039011969375535,-5.7312913501093e-05,-1.3224259163148e-06,1.8199603807675e-06,-4.9753446445274e-07,-16.340347699049,61.472399322459005,1.9828525972606998,1.2050925925926002,50400.0,1,1100.0,530.0,0.2,17.0
1742,37569600,434.83333333333,-0.00033341485217138,0.00039083521499895,-5.7420362827570996e-05,-1.3291417835232001e-06,1.8296725447070999e-06,-5.0053076118397e-07,-16.339607058610998,61.560640436013,1.9913288164181,1.2078703703704,50400.0,1,1100.0,530.0,0.2,17.0
1746,37656000,435.83333333333,-0.00033402266206978,0.00039155045221705,-5.7527790147269994e-05,-1.3358805262129999e-06,1.8394200138906003e-06,-5.0353948767768e-07,-16.338866076299,61.648800765138,1.9997928348292,1.2106481481481002,50400.0,1,1100.0,530.0,0.2,17.0
1750,37742400,436.83333333333,-0.00033463021066493,0.00039226540624022,-5.7635195575283995e-05,-1.3426421396244e-06,1.8492027775883e-06,-5.0656063796391e-07,-16.338124627168,61.736946170446,2.0082602126266997,1.2134259259259,50400.0,1,1100.0,530.0,0.2,17.0
1754,37828800,437.83333333333,-0.00033523749945961,0.00039298007728472996,-5.774257782512099e-05,-1.3494267489581001e-06,1.8590210472525002e-06,-5.0959429829432e-07,-16.337384574453,61.825020404072,2.0167165402798997,1.2162037037037,50400.0,1,1100.0,530.0,0.2,17.0
1758,37915200,438.83333333333,-0.00033584452851607,0.00039369446593122,-5.7849937415152e-05,-1.3562343568551e-06,1.868874827577e-06,-5.126404707219499e-07,-16.336644219746002,61.913083126202004,2.0251770312045,1.2189814814814999,50400.0,1,1100.0,530.0,0.2,17.0
1762,38001600,439.83333333333,-0.00033645129769682003,0.00039440857265902996,-5.7957274962211e-05,-1.3630650076092e-06,1.8787641900208e-06,-5.1569918241158e-07,-16.335903659571,62.001080959553,2.0336286543755002,1.2217592592593,50400.0,1,1100.0,530.0,0.2,17.0
1766,38088000,440.83333333333,-0.00033705780591594,0.00039512239592517,-5.8064590009228e-05,-1.3699187250917e-06,1.8886891762946e-06,-5.187704512029e-07,-16.335163819319,62.089058159159,2.0420816115056004,1.2245370370370001,50400.0,1,1100.0,530.0,0.2,17.0
1770,38174400,441.83333333333,-0.00033766405619744,0.00039583593841147004,-5.8171882214031004e-05,-1.3767955625994e-06,1.8986498743971e-06,-5.2185431179765e-07,-16.334423480928,62.176971963180996,2.0505268657187,1.2273148148148,50400.0,1,1100.0,530.0,0.2,17.0
1774,38260800,442.83333333333,-0.00033827004690534,0.00039654919831615,-5.8279151410811e-05,-1.3836955834938e-06,1.9086463909265e-06,-5.2495080743276e-07,-16.333685536893,62.26488617609,2.0589766771639,1.2300925925926,50400.0,1,1100.0,530.0,0.2,17.0
1778,38347200,443.83333333333,-0.00033887577822749,0.00039726217722892,-5.8386399001423e-05,-1.3906188133416e-06,1.9186787680496997e-06,-5.2805995470806e-07,-16.332946238873998,62.352735665229,2.0674185095827,1.2328703703704,50400.0,1,1100.0,530.0,0.2,17.0
1782,38433600,444.83333333333,-0.00033948125097574,0.00039797487605452005,-5.8493625078784e-05,-1.3975653071501002e-06,1.9287470969823003e-06,-5.3118178983223e-07,-16.332208753375,62.440558219975,2.0758599046267,1.2356481481481,50400.0,1,1100.0,530.0,0.2,17.0
1786,38520000,445.83333333333,-0.00034008646610872,0.0003986872941452,-5.8600828036474e-05,-1.4045351071261002e-06,1.9388514490319e-06,-5.343163419058e-07,-16.331469861068,62.52833820361,2.0842987588491,1.2384259259258998,50400.0,1,1100.0,530.0,0.2,17.0
1790,38606400,446.83333333333,-0.00034069142490967,0.0003993994325913,-5.8708007681628006e-05,-1.4115282295164e-06,1.9489918501467e-06,-5.374636206303099e-07,-16.330732617991,62.616064521149,2.0927303182978,1.2412037037037,50400.0,1,1100.0,530.0,0.2,17.0
1794,38692800,447.83333333333,-0.00034129612507792,0.00040011128951076,-5.8815164432842e-05,-1.4185447360905e-06,1.9591684040902e-06,-5.4062366799965e-07,-16.329995213439,62.703788079884994,2.1011681505989,1.2439814814815,50400.0,1,1100.0,530.0,0.2,17.0
1798,38779200,448.83333333333,-0.00034190056973683,0.00040082286853567996,-5.8922298798848e-05,-1.4255846803735e-06,1.9693811993395e-06,-5.4379651896595e-07,-16.329257990797,62.791446996316004,2.1095966681627,1.2467592592593,50400.0,1,1100.0,530.0,0.2,17.0
1802,38865600,449.83333333333,-0.00034250475730919,0.00040153416765621004,-5.9029410347018e-05,-1.4326480628101e-06,1.9796302376061e-06,-5.46982174796e-07,-16.328521656008,62.879054359502,2.1180191955386003,1.249537037037,50400.0,1,1100.0,530.0,0.2,17.0
1806,38952000,450.83333333333,-0.00034310868906585,0.00040224518705577996,-5.9136497989923e-05,-1.4397349547233e-06,1.9899156372038e-06,-5.5018068248054e-07,-16.327785192308,62.966656607602,2.1264472233874,1.2523148148148,50400.0,1,1100.0,530.0,0.2,17.0
1810,39038400,451.83333333333,-0.00034371236493147,0.00040295592750846,-5.924356257699399e-05,-1.4468453866788e-06,2.0002374496666998e-06,-5.533920629879799e-07,-16.327049010525,63.05417924781901,2.1348625100305,1.2550925925926002,50400.0,1,1100.0,530.0,0.2,17.0
1814,39124800,452.83333333333,-0.00034431578327519,0.00040366638739168,-5.9350604116494994e-05,-1.4539794089702e-06,2.0105957592839e-06,-5.5661635031373e-07,-16.326313713776,63.141670145703,2.1432775374197,1.2578703703704,50400.0,1,1100.0,530.0,0.2,17.0
1818,39211200,453.83333333333,-0.00034491894593878,0.00040437656832196,-5.9457622383173e-05,-1.4611370668303998e-06,2.0209906408105e-06,-5.5985357398009e-07,-16.325577383763,63.229151632406996,2.1516960700702,1.2606481481481,50400.0,1,1100.0,530.0,0.2,17.0
1822,39297600,454.83333333333,-0.00034552185454465,0.00040508647223951,-5.9564617694863e-05,-1.4683184066886999e-06,2.0314221712685003e-06,-5.631037645798601e-07,-16.324843159726,63.316594336628,2.1601119572037,1.2634259259259,50400.0,1,1100.0,530.0,0.2,17.0
1826,39384000,455.83333333333,-0.00034612450860742,0.00040579609822094,-5.967158961351801e-05,-1.475523485754e-06,2.0418904480665e-06,-5.663669623124899e-07,-16.324107403341,63.403967497132996,2.1685172789758,1.2662037037037,50400.0,1,1100.0,530.0,0.2,17.0
1830,39470400,456.83333333333,-0.00034672690889753997,0.00040650544679397,-5.977853789643e-05,-1.4827523312207e-06,2.0523955141576e-06,-5.696431829368901e-07,-16.323372337875,63.491320076812,2.1769254309215,1.2689814814815,50400.0,1,1100.0,530.0,0.2,17.0
1834,39556800,457.83333333333,-0.00034732905492217,0.00040721451735626,-5.9885462434089e-05,-1.4900049736065e-06,2.062937422427e-06,-5.7293244882053e-07,-16.322638697560002,63.57861678248901,2.185325480542,1.2717592592593001,50400.0,1,1100.0,530.0,0.2,17.0
1838,39643200,458.83333333333,-0.00034793094507634,0.00040792330980902,-5.9992364732685e-05,-1.4972814445018e-06,2.0735162242641003e-06,-5.7623477976229e-07,-16.32190423773,63.665897424511996,2.1937288114926004,1.2745370370370002,50400.0,1,1100.0,530.0,0.2,17.0
1842,39729600,459.83333333333,-0.0003485325816944,0.00040863182520468,-6.0099243510281006e-05,-1.504581789602e-06,2.0841319959494e-06,-5.7955020634745e-07,-16.321171422238,63.753113856631,2.2021226762047004,1.2773148148148,50400.0,1,1100.0,530.0,0.2,17.0
1846,39816000,460.83333333333,-0.00034913396498648997,0.00040934006378456,-6.0206098798073e-05,-1.5119060823063e-06,2.0947848616653997e-06,-5.8287877935912e-07,-16.320437995154,63.84032614513799,2.2105226510713,1.2800925925926,50400.0,1,1100.0,530.0,0.2,17.0
1850,39902400,461.83333333333,-0.00034973509491164,0.00041004802489017997,-6.0312929978533e-05,-1.5192543333148e-06,2.1054748370712e-06,-5.862205037563501e-07,-16.319704820361,63.927456778746006,2.2189094257926003,1.2828703703703999,50400.0,1,1100.0,530.0,0.2,17.0
1854,39988800,462.83333333333,-0.00035033597276707995,0.00041075571025883,-6.0419737491747e-05,-1.5266266081956999e-06,2.11620203261e-06,-5.8957542441428e-07,-16.318972566436997,64.014601443562,2.2273055955237,1.2856481481481001,50400.0,1,1100.0,530.0,0.2,17.0
1858,40075200,463.83333333333,-0.00035093659700434,0.00041146311924416,-6.0526522239819995e-05,-1.534022948719e-06,2.1269665182425e-06,-5.9294356952349e-07,-16.318240846257,64.101674478474,2.2356908186631,1.2884259259258999,50400.0,1,1100.0,530.0,0.2,17.0
1862,40161600,464.83333333333,-0.0003515369695322,0.00041217025193156,-6.063328239935699e-05,-1.5414433630839e-06,2.1377683074069998e-06,-5.963249443230799e-07,-16.317508795792,64.188711853399,2.2440751460953,1.2912037037037,50400.0,1,1100.0,530.0,0.2,17.0
1866,40248000,465.83333333333,-0.00035213709031625,0.00041287710938829,-6.074001907204301e-05,-1.5488879605561e-06,2.1486075833708998e-06,-5.9971962281485e-07,-16.316777980641,64.275709428121,2.2524553882681,1.2939814814815,50400.0,1,1100.0,530.0,0.2,17.0
1870,40334400,466.83333333333,-0.00035273696077199997,0.00041358369158206,-6.0846730810061e-05,-1.5563567411224e-06,2.1594843470495e-06,-6.0312760592705e-07,-16.316046192366,64.36267147833101,2.2608341670878,1.2967592592593,50400.0,1,1100.0,530.0,0.2,17.0
1874,40420800,467.83333333333,-0.00035333657804265,0.00041428999752652,-6.0953419483875e-05,-1.5638497258403999e-06,2.1703986305932e-06,-6.0654890475286e-07,-16.315315318038,64.449559542914,2.2692018129919,1.299537037037,50400.0,1,1100.0,530.0,0.2,17.0
1878,40507200,468.83333333333,-0.00035393594474572,0.00041499602861347004,-6.106008386775301e-05,-1.5713669944387e-06,2.1813505688547e-06,-6.0998357441601e-07,-16.314584800003,64.536471031429,2.2775816583902,1.3023148148148,50400.0,1,1100.0,530.0,0.2,17.0
1882,40593600,469.83333333333,-0.00035453506054897003,0.00041570178469322,-6.116672414425e-05,-1.5789085914476999e-06,2.1923402361136003e-06,-6.134316446658399e-07,-16.313853910616,64.623283587399,2.2859447885486,1.3050925925926002,50400.0,1,1100.0,530.0,0.2,17.0
1886,40680000,470.83333333333,-0.00035513392578632997,0.00041640726574064,-6.1273339954308e-05,-1.5864744745819e-06,2.2033675610738997e-06,-6.16893086492e-07,-16.313124193138,64.71008196254,2.2943097722287997,1.3078703703704,50400.0,1,1100.0,530.0,0.2,17.0
1890,40766400,471.83333333333,-0.00035573253962941,0.00041711247208694,-6.1379932457528e-05,-1.5940647210908002e-06,2.2144326724655e-06,-6.2036795137477e-07,-16.312394848234998,64.79688935555299,2.3026841303105,1.3106481481481,50400.0,1,1100.0,530.0,0.2,17.0
1894,40852800,472.83333333333,-0.00035633090522477,0.00041781740524411,-6.1486500019343e-05,-1.6016794719288e-06,2.2255358082232004e-06,-6.2385633629445e-07,-16.311664159444,64.88362307493901,2.3110476802129,1.3134259259258998,50400.0,1,1100.0,530.0,0.2,17.0
1898,40939200,473.83333333333,-0.00035692902103311,0.00041852206419358,-6.159304316046601e-05,-1.6093186950251998e-06,2.2366769127622003e-06,-6.2735821773696e-07,-16.310935378804,64.970284553989,2.3194003644339,1.3162037037037,50400.0,1,1100.0,530.0,0.2,17.0
1902,41025600,474.83333333333,-0.00035752688744069,0.00041922644965507004,-6.169956221438001e-05,-1.6169824429508002e-06,2.2478560750265e-06,-6.3087363207564e-07,-16.310207363838998,65.056950507127,2.3277596581995,1.3189814814815,50400.0,1,1100.0,530.0,0.2,17.0
1906,41112000,475.83333333333,-0.00035812450411254,0.00041993056139387003,-6.180605728132801e-05,-1.6246707348246999e-06,2.2590733254009e-06,-6.344025905761999e-07,-16.309478943968,65.143569194264,2.3361147751837,1.3217592592593002,50400.0,1,1100.0,530.0,0.2,17.0
1910,41198400,476.83333333333,-0.0003587218720833,0.00042063439960185,-6.1912527518542e-05,-1.6323836305997e-06,2.2703287656801003e-06,-6.379451350803701e-07,-16.308750715119,65.230137133935,2.3444641358642997,1.324537037037,50400.0,1,1100.0,530.0,0.2,17.0
1914,41284800,477.83333333333,-0.00035931899117746,0.00042133796456981,-6.2018973392353e-05,-1.6401211646908001e-06,2.2816224518395e-06,-6.4150128714862e-07,-16.308023690151998,65.316640431095,2.3528045387545,1.3273148148148,50400.0,1,1100.0,530.0,0.2,17.0
1918,41371200,478.83333333333,-0.0003599158628337,0.00042204125761832,-6.2125394784619e-05,-1.6478834244838002e-06,2.2929545313718e-06,-6.450711068879699e-07,-16.307296072103,65.403157643689,2.3611551470314,1.3300925925926002,50400.0,1,1100.0,530.0,0.2,17.0
1922,41457600,479.83333333333,-0.00036051248502067,0.00042274427720084,-6.2231792180176e-05,-1.6556703804747e-06,2.3043249533918e-06,-6.4865457291711e-07,-16.30656869276,65.489585084121,2.3694904274247004,1.3328703703704,50400.0,1,1100.0,530.0,0.2,17.0
1926,41544000,480.83333333333,-0.00036110885979452996,0.00042344702449271,-6.233816469818e-05,-1.6634820977638e-06,2.3157338268682e-06,-6.522517291044599e-07,-16.305842856633998,65.576015411141,2.3778326408572004,1.3356481481481002,50400.0,1,1100.0,530.0,0.2,17.0
1930,41630400,481.83333333333,-0.0003617049876682,0.00042414949983699,-6.244451216879101e-05,-1.6713186360111e-06,2.327181253915e-06,-6.558626179039001e-07,-16.30511586518,65.662397656236,2.3861705103068998,1.3384259259259,50400.0,1,1100.0,530.0,0.2,17.0
1934,41716800,482.83333333333,-0.00036230086773303,0.00042485170339042004,-6.2550835657385e-05,-1.6791800422581002e-06,2.3386673099563e-06,-6.594872676981999e-07,-16.304389828075,65.748757261384,2.3945087640642004,1.3412037037037,50400.0,1,1100.0,530.0,0.2,17.0
1938,41803200,483.83333333333,-0.00036289650168447996,0.0004255536353977,-6.265713371322e-05,-1.6870663210421e-06,2.3501920034557e-06,-6.6312568241355e-07,-16.303662933538998,65.835079734853,2.4028455904061,1.3439814814814999,50400.0,1,1100.0,530.0,0.2,17.0
1942,41889600,484.83333333333,-0.0003634918889381,0.00042625529618983,-6.2763407251729e-05,-1.6949775740257e-06,2.3617555059077998e-06,-6.667779318821101e-07,-16.302938923353,65.921339206472,2.4111724967255,1.3467592592592998,50400.0,1,1100.0,530.0,0.2,17.0
1946,41976000,485.83333333333,-0.00036408702841914,0.00042695668435485,-6.2869655935708e-05,-1.7029137712371e-06,2.3733577661076e-06,-6.7044399487057e-07,-16.302213980292002,66.007547386133,2.4194942396827,1.3495370370370001,50400.0,1,1100.0,530.0,0.2,17.0
1950,42062400,486.83333333333,-0.00036468192384903997,0.00042765780298623,-6.297587913718101e-05,-1.7108750163723e-06,2.3849989574488e-06,-6.7412394107652e-07,-16.301488771432,66.09374754537599,2.4278210813,1.3523148148148,50400.0,1,1100.0,530.0,0.2,17.0
1954,42148800,487.83333333333,-0.00036527657176313,0.00042835865015588,-6.308207839275e-05,-1.7188612809195e-06,2.3966790318307997e-06,-6.778177509112601e-07,-16.300764451429,66.179909652646,2.4361447243622,1.3550925925926,50400.0,1,1100.0,530.0,0.2,17.0
1958,42235200,488.83333333333,-0.00036587097531002997,0.00042905922705519,-6.3188251745159e-05,-1.7268726932604e-06,2.4083982059614e-06,-6.8152551270098e-07,-16.300040898250998,66.26598741837499,2.4444549222357,1.3578703703704,50400.0,1,1100.0,530.0,0.2,17.0
1962,42321600,489.83333333333,-0.00036646513407983,0.00042975953393757996,-6.3294399857751e-05,-1.7349092628255001e-06,2.420156493777e-06,-6.8524723095152e-07,-16.299315679222,66.35207783455,2.4527741259946,1.3606481481481,50400.0,1,1100.0,530.0,0.2,17.0
1966,42408000,490.83333333333,-0.00036705904639336,0.00043045957006717,-6.340052367380301e-05,-1.7429709891235001e-06,2.4319538938191e-06,-6.8898290469555e-07,-16.298592926061,66.438104600219,2.4610854524925,1.3634259259259,50400.0,1,1100.0,530.0,0.2,17.0
1970,42494400,491.83333333333,-0.0003676527162055,0.00043115933733638,-6.3506621130883e-05,-1.7510579868924e-06,2.4437905997797003e-06,-6.9273261288723e-07,-16.297868372725,66.52412363495,2.4694015175559,1.3662037037037,50400.0,1,1100.0,530.0,0.2,17.0
1974,42580800,492.83333333333,-0.00036824614048517,0.00043185883446113997,-6.3612693975975e-05,-1.7591702374490003e-06,2.4556665787547997e-06,-6.9649634130588e-07,-16.297147231626,66.610054825395,2.477701470582,1.3689814814815,50400.0,1,1100.0,530.0,0.2,17.0
1978,42667200,493.83333333333,-0.00036883932109077,0.00043255806260877004,-6.3718741518001e-05,-1.7673078131123001e-06,2.4675819529429e-06,-7.0027413983065e-07,-16.296424329264,66.695992822101,2.486011106513,1.3717592592593,50400.0,1,1100.0,530.0,0.2,17.0
1982,42753600,494.83333333333,-0.00036943225708182,0.00043325702137407004,-6.3824764292252e-05,-1.7754707483623e-06,2.4795367800416e-06,-7.0406603167932e-07,-16.295701049603,66.781897590986,2.4943191328362997,1.374537037037,50400.0,1,1100.0,530.0,0.2,17.0
1986,42840000,495.83333333333,-0.00037002495070621,0.00043395571164608,-6.3930760939866e-05,-1.783659110212e-06,2.4915311718789e-06,-7.0787206166691e-07,-16.294980112888,66.867731898595,2.5026159191047,1.3773148148148,50400.0,1,1100.0,530.0,0.2,17.0
1990,42926400,496.83333333333,-0.00037061740165818,0.00043465413311885,-6.4036731460668e-05,-1.7918729239839e-06,2.5035651712421003e-06,-7.1169224725816e-07,-16.294258261142,66.953503299015,2.51090507815,1.3800925925926,50400.0,1,1100.0,530.0,0.2,17.0
1994,43012800,497.83333333333,-0.00037120960868947003,0.00043535228625,-6.4142677560533e-05,-1.8001122443777001e-06,2.5156388684196e-06,-7.1552662404193e-07,-16.293536509893,67.039276639929,2.5192009146294,1.3828703703704,50400.0,1,1100.0,530.0,0.2,17.0
1998,43099200,498.83333333333,-0.00037180157106182,0.00043605017056686,-6.4248599505044e-05,-1.8083770506771e-06,2.5277522283163e-06,-7.193751776392499e-07,-16.29281642473,67.12503685347,2.5274996265192997,1.3856481481481,50400.0,1,1100.0,530.0,0.2,17.0
2002,43185600,499.83333333333,-0.00037239329192206004,0.00043674778705511,-6.4354495133059e-05,-1.8166674680231003e-06,2.5399054623463e-06,-7.2323799432327e-07,-16.292095865079,67.210683379459,2.5357781290764,1.3884259259259,50400.0,1,1100.0,530.0,0.2,17.0
2006,43272000,500.83333333333,-0.00037298477027366,0.00043744513502568997,-6.4460364752025e-05,-1.8249834360416e-06,2.5520984681296003e-06,-7.2711503208808e-07,-16.291374536717,67.296361913414,2.5440709546513,1.3912037037037,50400.0,1,1100.0,530.0,0.2,17.0
2010,43358400,501.83333333333,-0.00037357600755142,0.0004381422159179,-6.4566208366476e-05,-1.8333250729373002e-06,2.5643314440287003e-06,-7.310063710914699e-07,-16.290655364403,67.38196427272,2.5523508340359,1.3939814814815,50400.0,1,1100.0,530.0,0.2,17.0
2014,43444800,502.83333333333,-0.00037416700214757,0.00043883902949911003,-6.467202735154e-05,-1.841692391989e-06,2.5766044103860003e-06,-7.349120183970101e-07,-16.289935408015,67.46757716879699,2.5606413821956,1.3967592592593,50400.0,1,1100.0,530.0,0.2,17.0
2018,43531200,503.83333333333,-0.0003747577539217,0.00043953557500449,-6.4777821082797e-05,-1.8500854310924999e-06,2.5889174310792998e-06,-7.388319999868e-07,-16.289215817343,67.55312197803,2.5689212770451,1.3995370370370002,50400.0,1,1100.0,530.0,0.2,17.0
2022,43617600,504.83333333333,-0.00037534826409172,0.00044023185299373,-6.488358890200699e-05,-1.8585042698926004e-06,2.601270642058e-06,-7.427663721654101e-07,-16.288496934696,67.638592217677,2.5771899577556003,1.4023148148148,50400.0,1,1100.0,530.0,0.2,17.0
2026,43704000,505.83333333333,-0.00037593853251394,0.00044092786308872996,-6.4989330574796e-05,-1.8669489342432e-06,2.6136640854072997e-06,-7.4671515116414e-07,-16.287778192469002,67.72407804686,2.5854689143896,1.4050925925925999,50400.0,1,1100.0,530.0,0.2,17.0
2030,43790400,506.83333333333,-0.00037652856002602,0.00044162360639980996,-6.5095046373788e-05,-1.8754194722961998e-06,2.626097842455e-06,-7.506783701588e-07,-16.287059310905,67.809501371854,2.593739454898,1.4078703703703999,50400.0,1,1100.0,530.0,0.2,17.0
2034,43876800,507.83333333333,-0.00037711834938487,0.00044231908536203,-6.5200735977167e-05,-1.8839158458915001e-06,2.6385718444693e-06,-7.5465599857785e-07,-16.286341037119,67.894884251606,2.6020071667276,1.4106481481481001,50400.0,1,1100.0,530.0,0.2,17.0
2038,43963200,508.83333333333,-0.0003777078974181,0.0004430142974681,-6.5306400049998e-05,-1.8924382260573997e-06,2.6510863832672996e-06,-7.586481572099e-07,-16.285622470334,67.980227166376,2.6102713377141002,1.4134259259259,50400.0,1,1100.0,530.0,0.2,17.0
2042,44049600,509.83333333333,-0.00037829720288895,0.00044370924107392,-6.541203818497e-05,-1.9009865873279998e-06,2.6636414160218997e-06,-7.6265482869392e-07,-16.284906876861,68.065526579494,2.6185310303697,1.4162037037037,50400.0,1,1100.0,530.0,0.2,17.0
2046,44136000,510.83333333333,-0.00037888627263387,0.00044440392281685994,-6.551765018298901e-05,-1.9095609774748e-06,2.6762370191909e-06,-7.666760417160999e-07,-16.28418818343,68.150825509556,2.6267982932052,1.4189814814815,50400.0,1,1100.0,530.0,0.2,17.0
2050,44222400,511.83333333333,-0.00037947510143433,0.00044509833635385997,-6.5623234919529e-05,-1.9181614387998e-06,2.6888732664442997e-06,-7.707118276445e-07,-16.283471434026,68.236059465497,2.6350562186255,1.4217592592593,50400.0,1,1100.0,530.0,0.2,17.0
2054,44308800,512.83333333333,-0.00038006369005438,0.00044579248440247996,-6.5728794348097e-05,-1.9267879915755e-06,2.7015501902001e-06,-7.7476219862466e-07,-16.282754803280998,68.321258654804,2.6433123674415,1.424537037037,50400.0,1,1100.0,530.0,0.2,17.0
2058,44395200,513.83333333333,-0.00038065203945309,0.00044648636689974004,-6.5834327446657e-05,-1.9354407181776e-06,2.7142679304194e-06,-7.788272122418e-07,-16.282038933555,68.406408171319,2.651562438649,1.4273148148148,50400.0,1,1100.0,530.0,0.2,17.0
2062,44481600,514.83333333333,-0.00038124015111127,0.00044717998498362,-6.593983387235201e-05,-1.9441196168187e-06,2.7270264813049998e-06,-7.829068644862899e-07,-16.281323863136002,68.491536568264,2.6598138332606,1.4300925925926,50400.0,1,1100.0,530.0,0.2,17.0
2066,44568000,515.83333333333,-0.00038182802732821,0.00044787334186694003,-6.604531453873e-05,-1.9528247997720003e-06,2.7398260312146e-06,-7.8700123144256e-07,-16.280606664377,68.576648849356,2.6680688909586,1.4328703703704,50400.0,1,1100.0,530.0,0.2,17.0
2070,44654400,516.83333333333,-0.0003824156622196,0.00044856643170369006,-6.6150769484095e-05,-1.9615561843821e-06,2.7526664419148e-06,-7.9111025753276e-07,-16.279893052887,68.661673815496,2.6763082749797995,1.4356481481481,50400.0,1,1100.0,530.0,0.2,17.0
2074,44740800,517.83333333333,-0.00038300305939317997,0.00044925925741114,-6.6256198017958e-05,-1.9703139284898e-06,2.7655479795392996e-06,-7.9523405104945e-07,-16.279178955259,68.746663372627,2.6845465118599,1.4384259259259,50400.0,1,1100.0,530.0,0.2,17.0
2078,44827200,518.83333333333,-0.00038359021599649,0.00044995181655160994,-6.6361600555121e-05,-1.9790979801188e-06,2.7784705553476e-06,-7.9937257522888e-07,-16.278463440941,68.831638633818,2.6927879217679,1.4412037037037,50400.0,1,1100.0,530.0,0.2,17.0
2082,44913600,519.83333333333,-0.00038417713978997,0.00045064411534095,-6.6466975550974e-05,-1.9879085318861e-06,2.7914344928559e-06,-8.0352596096973e-07,-16.27774942305,68.91655643623,2.7010221181112004,1.4439814814815,50400.0,1,1100.0,530.0,0.2,17.0
2086,45000000,520.83333333333,-0.00038476382375972996,0.00045133614886197,-6.657232510224399e-05,-1.9967454644995e-06,2.8044395914188e-06,-8.0769412691934e-07,-16.277034358119,69.001448748329,2.7092570814216,1.4467592592593,50400.0,1,1100.0,530.0,0.2,17.0
2090,45086400,521.83333333333,-0.00038535027043509,0.00045202791834477997,-6.667764790969e-05,-2.0056088926814e-06,2.8174860438774e-06,-8.1187715119597e-07,-16.276320472609,69.086337283827,2.7174969980179,1.449537037037,50400.0,1,1100.0,530.0,0.2,17.0
2094,45172800,522.83333333333,-0.00038593648027447,0.00045271942485310997,-6.6782944578635e-05,-2.0144988236042e-06,2.8305738610016005e-06,-8.1607503739746e-07,-16.275605933529,69.171165320982,2.7257291305235998,1.4523148148148,50400.0,1,1100.0,530.0,0.2,17.0
2098,45259200,523.83333333333,-0.00038652245285594,0.00045341066716765994,-6.6888214311724e-05,-2.0234154057138e-06,2.8437032937939e-06,-8.2028788808014e-07,-16.274894006411,69.25592671272,2.7339519610807996,1.4550925925926,50400.0,1,1100.0,530.0,0.2,17.0
2102,45345600,524.83333333333,-0.0003871081883764,0.00045410164636660997,-6.6993457990216e-05,-2.0323585518119e-06,2.8568741941195e-06,-8.245156423076e-07,-16.274181115413,69.340668129097,2.742175653779,1.4578703703704,50400.0,1,1100.0,530.0,0.2,17.0
2106,45432000,525.83333333333,-0.00038769369122381,0.00045479236607372996,-6.709867484991899e-05,-2.0413284044065e-06,2.8700868005461e-06,-8.287583961395601e-07,-16.273469811738,69.425377463882,2.7503983576865,1.4606481481481002,50400.0,1,1100.0,530.0,0.2,17.0
2110,45518400,526.83333333333,-0.00038827895560873,0.00045548282128405,-6.720386567532701e-05,-2.0503249524456003e-06,2.8833410957216e-06,-8.3301614327596e-07,-16.272757154201,69.510070748743,2.7586247203573,1.4634259259259002,50400.0,1,1100.0,530.0,0.2,17.0
2114,45604800,527.83333333333,-0.00038886398598572,0.00045617301546680995,-6.7309029481088e-05,-2.0593481977181e-06,2.8966370824307997e-06,-8.3728888471271e-07,-16.272045654421998,69.594691197617,2.7668399072594,1.4662037037037,50400.0,1,1100.0,530.0,0.2,17.0
2118,45691200,528.83333333333,-0.00038944910771307,0.0004568633340102,-6.7414226297126e-05,-2.0683990447344e-06,2.909976018023e-06,-8.4157697328863e-07,-16.268383834572,69.724354647678,2.7925310510441,1.4689814814814999,50400.0,1,1100.0,530.0,0.2,17.0
2122,45777600,529.83333333333,-0.00039003399004809,0.00045755338600305995,-6.7519395954967e-05,-2.0774767627994e-06,2.9233569295490004e-06,-8.4588016674963e-07,-16.2676647848,69.810094355028,2.8010553926598,1.4717592592592998,50400.0,1,1100.0,530.0,0.2,17.0
2126,45864000,530.83333333333,-0.00039061830841783,0.00045824278526795996,-6.7624476850123e-05,-2.0865805221944e-06,2.9367786940364e-06,-8.5019817184199e-07,-16.269910509867998,69.84839609658201,2.7914865732166,1.4745370370370001,50400.0,1,1100.0,530.0,0.2,17.0
2130,45950400,531.83333333333,-0.00039120239534708997,0.00045893192847497,-6.7729533127875e-05,-2.0957111197271e-06,2.9502423827846e-06,-8.5453126305756e-07,-16.269199834762002,69.932886686664,2.7996977564259,1.4773148148148,50400.0,1,1100.0,530.0,0.2,17.0
2134,46036800,532.83333333333,-0.0003917862463775,0.00045962080873177,-6.7834562354275e-05,-2.1048687177588e-06,2.9637482719545e-06,-8.588795541957e-07,-16.268490010592,70.017325283692,2.8079011049197997,1.4800925925926,50400.0,1,1100.0,530.0,0.2,17.0
2138,46123200,533.83333333333,-0.00039237016914432996,0.00046030979032359005,-6.793962117926e-05,-2.1140541111394e-06,2.9772974357879e-06,-8.632433246485e-07,-16.264823603556,70.145800846919,2.8334468318879,1.4828703703704,50400.0,1,1100.0,530.0,0.2,17.0
2142,46209600,534.83333333333,-0.00039295354538617,0.00046099813965472003,-6.8044594268549e-05,-2.1232657015591998e-06,2.9908877100308e-06,-8.6762200847162e-07,-16.267069650707,70.186159248026,2.8243196129411,1.4856481481481,50400.0,1,1100.0,530.0,0.2,17.0
2146,46296000,535.83333333333,-0.00039353669362172,0.00046168623577467,-6.8149542152948e-05,-2.132504395757e-06,3.0045203527017997e-06,-8.720159569447399e-07,-16.266359193698,70.270484711688,2.8325159677688996,1.4884259259259,50400.0,1,1100.0,530.0,0.2,17.0
2150,46382400,536.83333333333,-0.00039411960819372,0.00046237406998224004,-6.8254461788522e-05,-2.1417701592265e-06,3.0181953117116002e-06,-8.7642515248505e-07,-16.2656514398,70.354790443724,2.8407136561087,1.4912037037037,50400.0,1,1100.0,530.0,0.2,17.0
2154,46468800,537.83333333333,-0.00039470228911354,0.00046306164402954006,-6.8359354916003e-05,-2.1510631139761e-06,3.0319127892447e-06,-8.8084967526859e-07,-16.264941939394,70.439054668681,2.8489085752861,1.4939814814815,50400.0,1,1100.0,530.0,0.2,17.0
2158,46555200,538.83333333333,-0.00039528473497197996,0.00046374895692592,-6.8464221953946e-05,-2.1603832121080003e-06,3.0456727055707e-06,-8.8528949346273e-07,-16.264233357959,70.52325584628001,2.8570944261927003,1.4967592592593,50400.0,1,1100.0,530.0,0.2,17.0
2162,46641600,539.83333333333,-0.00039586728734177,0.00046443641099933,-6.856912365755899e-05,-2.1697314570139e-06,3.0594764676305e-06,-8.8974501061662e-07,-16.260607193919,70.655276041305,2.8833842937287004,1.499537037037,50400.0,1,1100.0,530.0,0.2,17.0
2166,46728000,540.83333333333,-0.00039644926191396003,0.00046512319632155,-6.867393440759e-05,-2.1791060747374e-06,3.0733216511889e-06,-8.942155764515999e-07,-16.262817509102,70.691628064163,2.8734795381783,1.5023148148148,50400.0,1,1100.0,530.0,0.2,17.0
2170,46814400,541.83333333333,-0.00039703130202657996,0.00046581007583622997,-6.8778773809649e-05,-2.1885088255084997e-06,3.0872106761433e-06,-8.9870185063482e-07,-16.259214518661,70.817864733884,2.8985323353248,1.5050925925926,50400.0,1,1100.0,530.0,0.2,17.0
2174,46900800,542.83333333333,-0.00039761280665113,0.00046649633619320994,-6.888352954208299e-05,-2.197938112555e-06,3.1011413760459e-06,-9.032032634908701e-07,-16.261403277254,70.85982928388,2.8898493705165,1.5078703703704,50400.0,1,1100.0,530.0,0.2,17.0
2177,46922400,543.08333333333,-0.00039761280665113,0.00046649633619320994,-6.888352954208299e-05,-2.197938112555e-06,3.1011413760459e-06,-9.032032634908701e-07,0.6320797215658399,91.894329126038,44.766531523213,1.5085648148148,90000.0,3,25.0,25.0,0.1,0.1
2181,47023200,544.25,-0.00039765184183342996,0.00046654211227005997,-6.8890270436627e-05,-2.1985388827488e-06,3.1020181266238e-06,-9.0347924387495e-07,-16.261398801531,70.865299134918,2.8903857680665,1.5118055555556003,50400.0,1,1100.0,530.0,0.2,17.0
2185,47109600,545.25,-0.00039823325703869,0.00046722828076969003,-6.8995023731e-05,-2.2079978360477003e-06,3.1159951184248e-06,-9.0799728237712e-07,-16.257743953437,70.97671829366101,2.9121438885306,1.5145833333333,50400.0,1,1100.0,530.0,0.2,17.0
2189,47196000,546.25,-0.00039881425096,0.00046791396762969006,-6.9099716669692e-05,-2.2174837699582994e-06,3.130014465758e-06,-9.1253069579974e-07,-16.259945245169,71.03319882892801,2.9066826863097996,1.5173611111111,50400.0,1,1100.0,530.0,0.2,17.0
2193,47282400,547.25,-0.00039939502337134,0.00046859940796182,-6.9204384590477e-05,-2.2269971786428e-06,3.1440768029442e-06,-9.1707962430137e-07,-16.259238197897,71.117166130383,2.9148589768737994,1.5201388888889,50400.0,1,1100.0,530.0,0.2,17.0
2197,47368800,548.25,-0.00039997581276145,0.00046928488167463,-6.9309068913175e-05,-2.2365387887698e-06,3.1581831316322004e-06,-9.2164434286241e-07,-16.255599542837,71.23652830213,2.9384280632927,1.5229166666667,50400.0,1,1100.0,530.0,0.2,17.0
2201,47455200,549.25,-0.00040055611746182997,0.00046996980019298,-6.9413682731149e-05,-2.2461073068492996e-06,3.1723317238753e-06,-9.262244170259701e-07,-16.257826266522,71.28498581324,2.9312031351856,1.5256944444443998,50400.0,1,1100.0,530.0,0.2,17.0
2205,47541600,550.25,-0.00040113619479517003,0.00047065446354293,-6.951826874776701e-05,-2.2557034031985e-06,3.1865234839567996e-06,-9.3082008075837e-07,-16.257122647113,71.368802326395,2.9393623889169,1.5284722222222,50400.0,1,1100.0,530.0,0.2,17.0
2209,47628000,551.25,-0.00040171604541187997,0.00047133887207789006,-6.962282666600799e-05,-2.2653272288489e-06,3.2007586645182998e-06,-9.354314356694099e-07,-16.256415190386,71.452629563844,2.9475308383526,1.53125,50400.0,1,1100.0,530.0,0.2,17.0
2213,47714400,552.25,-0.00040229566307261,0.00047202302157685,-6.9727358504237e-05,-2.2749786718391e-06,3.2150370791111e-06,-9.40058407272e-07,-16.255710876921,71.53639698266,2.9556908926278997,1.5340277777778,50400.0,1,1100.0,530.0,0.2,17.0
2217,47800800,553.25,-0.00040287505291312003,0.00047270691744744005,-6.9831864534321e-05,-2.2846578727084e-06,3.2293589601611e-06,-9.447010874527e-07,-16.255008347437002,71.620124241035,2.9638476746892,1.5368055555556002,50400.0,1,1100.0,530.0,0.2,17.0
2221,47887200,554.25,-0.00040345446939255,0.00047339085622368,-6.9936386831126e-05,-2.2943656036109e-06,3.2437253734211003e-06,-9.493597698101801e-07,-16.251386082627,71.741114543462,2.9878688148024,1.5395833333333,50400.0,1,1100.0,530.0,0.2,17.0
2225,47973600,555.25,-0.00040403339436291,0.0004740742290372,-7.0040834674288e-05,-2.3041004129597e-06,3.2581343512041e-06,-9.540339382444e-07,-16.253599315718,71.787503060022,2.9801654177019,1.5423611111111,50400.0,1,1100.0,530.0,0.2,17.0
2229,48060000,556.25,-0.00040461238896407996,0.00047475770101287,-7.014531204879101e-05,-2.3138638968922e-06,3.2725880733278e-06,-9.5872417643561e-07,-16.24999529149,71.913382615983,3.0051880834522997,1.5451388888889,50400.0,1,1100.0,530.0,0.2,17.0
2233,48146400,557.25,-0.00040519085533163,0.00047544055988047004,-7.0249704548848e-05,-2.3236544757059e-06,3.2870844105045e-06,-9.6342993479858e-07,-16.252193438478,71.95472834528401,2.9964716740516,1.5479166666667,50400.0,1,1100.0,530.0,0.2,17.0
2237,48232800,558.25,-0.00040576941048994,0.00047612353810923,-7.0354127619284e-05,-2.3334738562174e-06,3.3016257006457994e-06,-9.6815184442831e-07,-16.248587178683,72.0826738929,3.0219438703445,1.5506944444443997,50400.0,1,1100.0,530.0,0.2,17.0
2241,48319200,559.25,-0.00040634741884167997,0.00047680588517924003,-7.0458466337553e-05,-2.3433203531082e-06,3.3162096457934e-06,-9.728892926851499e-07,-16.250787606039,72.12180562415,3.0127685554917,1.5534722222222,50400.0,1,1100.0,530.0,0.2,17.0
2245,48405600,560.25,-0.00040692552436545,0.00047748836111365,-7.0562836748197e-05,-2.353195762941e-06,3.3308387250789e-06,-9.776429621378999e-07,-16.247200505716,72.250263255353,3.0383766129196,1.55625,50400.0,1,1100.0,530.0,0.2,17.0
2249,48492000,561.25,-0.00040750333751112,0.00047817050479805,-7.066716728693e-05,-2.3630991132971e-06,3.3455116078096e-06,-9.8241249451249e-07,-16.246455573625,72.32731220269599,3.0451316591242,1.5590277777777999,50400.0,1,1100.0,530.0,0.2,17.0
2253,48578400,562.25,-0.0004080809364729,0.00047885240633285,-7.0771469859946e-05,-2.3730305964737997e-06,3.3602285803499e-06,-9.8719798387612e-07,-16.245815352083,72.411453216496,3.0534533563347,1.5618055555556003,50400.0,1,1100.0,530.0,0.2,17.0
2257,48664800,563.25,-0.00040865803275276003,0.00047953372758100996,-7.0875694828247e-05,-2.3829894521619e-06,3.3749886207418e-06,-9.9199916857992e-07,-16.247980510677,72.45555275135,3.0453434022398995,1.5645833333333001,50400.0,1,1100.0,530.0,0.2,17.0
2261,48751200,564.25,-0.00040923490436732996,0.0004802147984151,-7.0979894047772e-05,-2.3929765419605e-06,3.3897929272272005e-06,-9.9681638526666e-07,-16.247278143381,72.538922801449,3.0534869121623,1.5673611111111,50400.0,1,1100.0,530.0,0.2,17.0
2265,48837600,565.25,-0.00040981154799982997,0.00048089561433869006,-7.108406633885899e-05,-2.4029918137832996e-06,3.4046414137573997e-06,-1.0016495999740999e-06,-16.246579085685,72.622169951667,3.061607413178,1.5701388888889,50400.0,1,1100.0,530.0,0.2,17.0
2269,48924000,566.25,-0.00041038827303818,0.00048157653886908,-7.1188265830896e-05,-2.4130362474688e-06,3.4195354564072004e-06,-1.0064992089384002e-06,-16.242988765910003,72.74893746798399,3.086869950428,1.5729166666667,50400.0,1,1100.0,530.0,0.2,17.0
2273,49010400,567.25,-0.00041096471397257,0.00048225714302527,-7.1292429052699e-05,-2.4231088885691e-06,3.4344737390431e-06,-1.011364850474e-06,-16.242294913735,72.82853241695,3.0942076959862,1.5756944444443999,50400.0,1,1100.0,530.0,0.2,17.0
2277,49096800,568.25,-0.00041154066796101,0.00048293718305885997,-7.139651509785e-05,-2.4332090777133e-06,3.4494553868618996e-06,-1.0162463091486e-06,-16.2444762491,72.871854764846,3.0859967170311005,1.5784722222222,50400.0,1,1100.0,530.0,0.2,17.0
2281,49183200,569.25,-0.00041211640611675,0.00048361698215160996,-7.1500576034863e-05,-2.4433377053801004e-06,3.4644816399124e-06,-1.0211439345323e-06,-16.243778083177,72.954980991491,3.0941138907489,1.58125,50400.0,1,1100.0,530.0,0.2,17.0
2285,49269600,570.25,-0.00041269191899473,0.00048429652762777003,-7.1604608633032e-05,-2.4534947751217e-06,3.4795525096872e-06,-1.0260577345655002e-06,-16.243080210601,73.038088319366,3.1022333727849,1.5840277777778,50400.0,1,1100.0,530.0,0.2,17.0
2289,49356000,571.25,-0.00041326720652376,0.00048497581989522995,-7.1708613371474e-05,-2.4636803261507005e-06,3.4946680622262003e-06,-1.0309877360755e-06,-16.242379572492002,73.121157938691,3.1103509734484,1.5868055555556002,50400.0,1,1100.0,530.0,0.2,17.0
2293,49442400,572.25,-0.00041384252187079,0.00048565515718891,-7.1812635318123e-05,-2.4738951050611e-06,3.5098293167168998e-06,-1.0359342116558e-06,-16.238787102864002,73.240227304297,3.1338158999801005,1.5895833333333,50400.0,1,1100.0,530.0,0.2,17.0
2297,49528800,573.25,-0.00041441761345665,0.00048633424309962,-7.1916629642967e-05,-2.4841385024955e-06,3.52503546783e-06,-1.0408969653344998e-06,-16.238164081079997,73.32598262916899,3.1427149741972,1.5923611111111,50400.0,1,1100.0,530.0,0.2,17.0
2301,49615200,574.25,-0.00041499221982165,0.00048701276833992,-7.202054851827399e-05,-2.4944097091662003e-06,3.5402854194496004e-06,-1.0458757102833001e-06,-16.240284542007,73.370176308385,3.1346970462345,1.5951388888889,50400.0,1,1100.0,530.0,0.2,17.0
2305,49701600,575.25,-0.00041556687911057,0.00048769137276912997,-7.212449365855e-05,-2.5047104237153e-06,3.5555815128455e-06,-1.0508710891302e-06,-16.236700864770004,73.494351938887,3.1594594458145,1.5979166666667,50400.0,1,1100.0,530.0,0.2,17.0
2309,49788000,576.25,-0.0004161413081527,0.0004883697150408299,-7.2228406888125e-05,-2.5150397812544e-06,3.5709225663697996e-06,-1.0558827851155e-06,-16.236045576352,73.575672871569,3.167250011066,1.6006944444443998,50400.0,1,1100.0,530.0,0.2,17.0
2313,49874400,577.25,-0.00041671523759757997,0.00048904747967097,-7.233224207339e-05,-2.5253970786447003e-06,3.5863076425654e-06,-1.0609105639205998e-06,-16.238193996821998,73.618859781367,3.1590214651394,1.6034722222222,50400.0,1,1100.0,530.0,0.2,17.0
2317,49960800,578.25,-0.00041728894581122,0.00048972499702856,-7.2436051217341e-05,-2.5357831281092005e-06,3.6017378550526003e-06,-1.0659547269434e-06,-16.237495663683,73.701666926553,3.167122084285,1.60625,50400.0,1,1100.0,530.0,0.2,17.0
2321,50047200,579.25,-0.00041786271669955,0.00049040259755814,-7.253988085859e-05,-2.5461988068318e-06,3.6172144236019996e-06,-1.0710156167701e-06,-16.23386714895,73.82438659740599,3.1915399303189997,1.6090277777778,50400.0,1,1100.0,530.0,0.2,17.0
2325,50133600,580.25,-0.00041843597290857997,0.00049107960398843,-7.2643631079855e-05,-2.5566425222141004e-06,3.6327351797692e-06,-1.0760926575551e-06,-16.236104719032,73.867198053632,3.1833220534763,1.6118055555556001,50400.0,1,1100.0,530.0,0.2,17.0
2329,50220000,581.25,-0.00041900901152354,0.00049175636601617,-7.2747354492632e-05,-2.5671151006488e-06,3.6483012562168e-06,-1.081186155568e-06,-16.235407747286,73.949879954446,3.1914111029293997,1.6145833333333,50400.0,1,1100.0,530.0,0.2,17.0
2333,50306400,582.25,-0.00041958182804471004,0.00049243287753673,-7.285104949201999e-05,-2.5776165668595003e-06,3.6639126968226e-06,-1.0862961299631e-06,-16.234711947656,74.032549251077,3.1995039293272995,1.6173611111111,50400.0,1,1100.0,530.0,0.2,17.0
2337,50392800,583.25,-0.0004201544178389,0.0004931091345551401,-7.2954716716242e-05,-2.5881470637187998e-06,3.6795697428092003e-06,-1.0914226790903998e-06,-16.234016687230998,74.115164878377,3.2075914996746997,1.6201388888889,50400.0,1,1100.0,530.0,0.2,17.0
2341,50479200,584.25,-0.00042072678620836004,0.00049378514165496,-7.3058355446605e-05,-2.5987065166396e-06,3.6952722660517e-06,-1.0965657494121001e-06,-16.233323933075,74.197741539376,3.2156740345847004,1.6229166666666999,50400.0,1,1100.0,530.0,0.2,17.0
2345,50565600,585.25,-0.00042129892993702004,0.00049446089478396,-7.3161964846937e-05,-2.6092950442808e-06,3.7110204701912004e-06,-1.1017254259103999e-06,-16.232628782434002,74.28029781970899,3.2237595370179997,1.6256944444443997,50400.0,1,1100.0,530.0,0.2,17.0
2349,50652000,586.25,-0.0004218708545445,0.00049513640313083,-7.3265548586327e-05,-2.6199126095903e-06,3.7268142866243996e-06,-1.1069016770341e-06,-16.231933439702,74.362822061176,3.2318441219687,1.6284722222222001,50400.0,1,1100.0,530.0,0.2,17.0
2353,50738400,587.25,-0.0004224425566804,0.00049581166105319,-7.3369104372794e-05,-2.6305593659174e-06,3.7426539754449995e-06,-1.1120946095274999e-06,-16.231240746518,74.44525854090399,3.2399131593961,1.63125,50400.0,1,1100.0,530.0,0.2,17.0
2357,50824800,588.25,-0.0004230140366021,0.0004964866676974099,-7.3472631095313e-05,-2.6412353047166e-06,3.7585395244585e-06,-1.1173042197418999e-06,-16.230545897618,74.527730749048,3.2479973800079,1.6340277777778,50400.0,1,1100.0,530.0,0.2,17.0
2361,50911200,589.25,-0.0004235852957932,0.00049716142634499,-7.3576130551788e-05,-2.65194045609e-06,3.7744709787931998e-06,-1.1225305227032e-06,-16.229853375504,74.610111781207,3.2560668418961,1.6368055555556003,50400.0,1,1100.0,530.0,0.2,17.0
2365,50997600,590.25,-0.00042415633568895,0.00049783593778671,-7.3679602097752e-05,-2.6626748435608996e-06,3.7904483808678e-06,-1.1277735373068998e-06,-16.229159979759,74.692493842599,3.2641436569611,1.6395833333333,50400.0,1,1100.0,530.0,0.2,17.0
2369,51084000,591.25,-0.00042472715389524,0.00049851019937964,-7.378304548439699e-05,-2.6734385306543998e-06,3.8064718415851e-06,-1.1330333109307e-06,-16.228467925712,74.774816372239,3.2722124292648,1.6423611111111,50400.0,1,1100.0,530.0,0.2,17.0
2373,51170400,592.25,-0.00042529775182201,0.00049918421209819,-7.3886460276178e-05,-2.6842315618825e-06,3.8225414291831e-06,-1.1383098673006e-06,-16.227774664953,74.85713070152501,3.2802848786297,1.6451388888889,50400.0,1,1100.0,530.0,0.2,17.0
2377,51256800,593.25,-0.00042586812694227997,0.0004998579737516,-7.3989846809317e-05,-2.6950539181145e-06,3.8386571158825e-06,-1.1436031977680001e-06,-16.227083138762,74.939361205908,3.2883439466231,1.6479166666667,50400.0,1,1100.0,530.0,0.2,17.0
2381,51343200,594.25,-0.00042643828195049,0.00050053148602275,-7.409320407225601e-05,-2.7059056794095e-06,3.8548190373823e-06,-1.1489133579728e-06,-16.226391051066,75.021583529062,3.2964088907559,1.6506944444443998,50400.0,1,1100.0,530.0,0.2,17.0
2385,51429600,595.25,-0.0004270084818118,0.0005012050647084,-7.4196582896595e-05,-2.7167878418827005e-06,3.8710285930967995e-06,-1.1542407512141e-06,-16.222871141213,75.144399500709,3.3210717175717,1.6534722222222,50400.0,1,1100.0,530.0,0.2,17.0
2389,51516000,596.25,-0.00042757818487575,0.00050187806575888,-7.4299880883133e-05,-2.7276985567503996e-06,3.887283222964701e-06,-1.1595846662143e-06,-16.225008168896,75.185943663291,3.312536885723,1.65625,50400.0,1,1100.0,530.0,0.2,17.0
2393,51602400,597.25,-0.00042814767812234,0.00050255083149349,-7.4403153371153e-05,-2.7386388432162004e-06,3.9035843577161e-06,-1.1649455144998998e-06,-16.224316491718,75.268013300946,3.3205837140921,1.6590277777778,50400.0,1,1100.0,530.0,0.2,17.0
2397,51688800,598.25,-0.00042871695273711,0.0005032233504495,-7.4506397712396e-05,-2.7496086959064e-06,3.9199319952519e-06,-1.1703232993456002e-06,-16.223625142375,75.350135076391,3.3286495704499,1.6618055555556002,50400.0,1,1100.0,530.0,0.2,17.0
2401,51775200,599.25,-0.00042928600697516,0.0005038956198648,-7.4609612889647e-05,-2.7606081095305e-06,3.936326126345201e-06,-1.1757180168147e-06,-16.222936212453998,75.43217088872501,3.3367013268753998,1.6645833333333,50400.0,1,1100.0,530.0,0.2,17.0
2405,51861600,600.25,-0.00042985484061491,0.00050456764068678,-7.4712800071865e-05,-2.7716371975513e-06,3.9527669413268996e-06,-1.1811297437757e-06,-16.222247042007,75.514174584513,3.3447521422265,1.6673611111111,50400.0,1,1100.0,530.0,0.2,17.0
2409,51948000,601.25,-0.00043042345608778,0.0005052394158710001,-7.4815959783211e-05,-2.7826960346898997e-06,3.9692545649732e-06,-1.1865585302833e-06,-16.221556594869,75.596119821486,3.3527953349846,1.6701388888889,50400.0,1,1100.0,530.0,0.2,17.0
2413,52034400,602.25,-0.00043099185152227997,0.00050591094189328,-7.4919090371002e-05,-2.7937846081319e-06,3.9857889782526e-06,-1.1920043701206998e-06,-16.220866601952,75.678060415063,3.3608449021321,1.6729166666667,50400.0,1,1100.0,530.0,0.2,17.0
2417,52120800,603.25,-0.00043156002746512,0.00050658221950199,-7.5022192036867e-05,-2.8049029106e-06,4.002370169166299e-06,-1.1974672585663e-06,-16.220178694417,75.759951346924,3.3688872899119997,1.6756944444443997,50400.0,1,1100.0,530.0,0.2,17.0
2421,52207200,604.25,-0.00043212798521588,0.00050725325072342,-7.512526550753399e-05,-2.816051092015e-06,4.0189983865502e-06,-1.2029472945351999e-06,-16.219488694031,75.841775783538,3.3769215972642006,1.6784722222222,50400.0,1,1100.0,530.0,0.2,17.0
2425,52293600,605.25,-0.00043269572778745,0.0005079240389087,-7.5228311121252e-05,-2.8272291337907e-06,4.0356735991179e-06,-1.2084444653272e-06,-16.218799540571002,75.923620352983,3.38496702045,1.68125,50400.0,1,1100.0,530.0,0.2,17.0
2429,52380000,606.25,-0.00043326325220795,0.0005085945806945599,-7.5331328486609e-05,-2.8384370744139e-06,4.0523958716824e-06,-1.2139587972685e-06,-16.218112858527,76.005388701295,3.3930002055677004,1.6840277777777999,50400.0,1,1100.0,530.0,0.2,17.0
2433,52466400,607.25,-0.00043383055750593997,0.0005092648731254099,-7.5434315619473e-05,-2.8496748879346e-06,4.0691651654742e-06,-1.2194902775396999e-06,-16.217425655587,76.087113827931,3.4010294081637,1.6868055555556003,50400.0,1,1100.0,530.0,0.2,17.0
2437,52552800,608.25,-0.00043439796533713,0.0005099353001726599,-7.5537334835532e-05,-2.8609437717855e-06,4.0859831851845005e-06,-1.225039413399e-06,-16.213813653689,76.215701537012,3.4270524364223998,1.6895833333333001,50400.0,1,1100.0,530.0,0.2,17.0
2441,52639200,609.25,-0.0004349648281039,0.0005106050924290701,-7.564026432517701e-05,-2.8722416627436e-06,4.1028470691352e-06,-1.2306054063916e-06,-16.216048758722,76.25056462479701,3.4171093028132002,1.6923611111111,50400.0,1,1100.0,530.0,0.2,17.0
2445,52725600,610.25,-0.00043553147653293,0.00051127464229417,-7.574316576124e-05,-2.8835696250061e-06,4.1197583029914e-06,-1.2361886779853e-06,-16.215364010328,76.332198722972,3.4251357520972996,1.6951388888889,50400.0,1,1100.0,530.0,0.2,17.0
2449,52812000,611.25,-0.00043609791111633,0.00051194395014512,-7.584603902879e-05,-2.8949277097061003e-06,4.1367169720183e-06,-1.2417892623123001e-06,-16.214677610973002,76.413785630725,3.4331589377416,1.6979166666667,50400.0,1,1100.0,530.0,0.2,17.0
2453,52898400,612.25,-0.00043666412896987,0.00051261301366118,-7.5948884691301e-05,-2.9063159291188e-06,4.1537230976616e-06,-1.2474071685429e-06,-16.213989457517,76.495364395168,3.4411861292865003,1.7006944444443999,50400.0,1,1100.0,530.0,0.2,17.0
2457,52984800,613.25,-0.00043723012844157003,0.00051328182918788,-7.6051700746319e-05,-2.9177342810695e-06,4.1707766753932e-06,-1.2530423943237e-06,-16.213305270201,76.57689186209001,3.4492069560939,1.7034722222222,50400.0,1,1100.0,530.0,0.2,17.0
2461,53071200,614.25,-0.00043779591240754,0.00051395040053557,-7.615448812803199e-05,-2.9291828945839e-06,4.1878779251326e-06,-1.2586950305487e-06,-16.212617515313,76.658388511841,3.4572287976326,1.70625,50400.0,1,1100.0,530.0,0.2,17.0
2465,53157600,615.25,-0.00043836148024196004,0.00051461872666088,-7.6257246418916e-05,-2.9406617097012996e-06,4.205026744472899e-06,-1.2643650347716001e-06,-16.211933622796,76.73984892602199,3.4652457953253997,1.7090277777778,50400.0,1,1100.0,530.0,0.2,17.0
2469,53244000,616.25,-0.00043892683181095,0.00051528680773502,-7.6359975924068e-05,-2.9521708338694e-06,4.2222233113861e-06,-1.2700524775166001e-06,-16.211247858401002,76.821270341393,3.4732622402724997,1.7118055555556002,50400.0,1,1100.0,530.0,0.2,17.0
2473,53330400,617.25,-0.00043949227360579,0.00051595500743747,-7.6462733831682e-05,-2.9637113677897997e-06,4.2394691842783e-06,-1.2757578164885e-06,-16.207688759268,76.94725507170901,3.4986977298940998,1.7145833333333,50400.0,1,1100.0,530.0,0.2,17.0
2477,53416800,618.25,-0.00044005720604516,0.00051662261530932,-7.6565409264161e-05,-2.9752813490922e-06,4.2567616393149005e-06,-1.2814802902227e-06,-16.209876773997,76.984030918172,3.4892941644458997,1.7173611111111,50400.0,1,1100.0,530.0,0.2,17.0
2481,53503200,619.25,-0.00044062191010915,0.00051728996176558,-7.666805165643101e-05,-2.986881670616e-06,4.2741019096827e-06,-1.2872202390668002e-06,-16.209195312546,77.065326708934,3.4972978163567,1.7201388888889,50400.0,1,1100.0,530.0,0.2,17.0
2485,53589600,620.25,-0.00044118639824624006,0.00051795706390289,-7.677066565664799e-05,-2.9985124179902e-06,4.2914901266166e-06,-1.2929777086264998e-06,-16.208509425911,77.14661055228599,3.5053065876695,1.7229166666667,50400.0,1,1100.0,530.0,0.2,17.0
2489,53676000,621.25,-0.00044175067053133,0.00051862392185403,-7.6873251322704e-05,-3.0101736689471e-06,4.3089264180994e-06,-1.2987527491523e-06,-16.207822716972,77.227853750575,3.5133141035314,1.7256944444443998,50400.0,1,1100.0,530.0,0.2,17.0
2493,53762400,622.25,-0.00044231472646625994,0.00051929053487292,-7.697580840666701e-05,-3.0218655426034e-06,4.3264109877176e-06,-1.3045454451142001e-06,-16.207142537336,77.309055379967,3.5213147116345,1.7284722222222,50400.0,1,1100.0,530.0,0.2,17.0
2497,53848800,623.25,-0.000442878568123,0.00051995690485384,-7.7078336730837e-05,-3.0335879938205e-06,4.3439437593357e-06,-1.3103557655152e-06,-16.206460296231,77.39022562854,3.5293151230728,1.73125,50400.0,1,1100.0,530.0,0.2,17.0
2501,53935200,624.25,-0.00044344219537421,0.00052062303066456,-7.718083529034499e-05,-3.0453409989663e-06,4.3615246914664005e-06,-1.3161836925001002e-06,-16.205778047558,77.471325646391,3.5373052609742004,1.7340277777778,50400.0,1,1100.0,530.0,0.2,17.0
2505,54021600,625.25,-0.00044400560859965995,0.0005212889137103901,-7.7283305110735e-05,-3.0571247521306e-06,4.3791541105252995e-06,-1.3220293583946e-06,-16.205094066093,77.552449950524,3.5453091609226,1.7368055555556001,50400.0,1,1100.0,530.0,0.2,17.0
2509,54108000,626.25,-0.00044456880585226,0.0005219545535330001,-7.7385747680742e-05,-3.0689391971837e-06,4.3968319223796e-06,-1.3278927251958999e-06,-16.204412191362,77.63349833764,3.5533003095203,1.7395833333333,50400.0,1,1100.0,530.0,0.2,17.0
2513,54194400,627.25,-0.00044513179225025,0.00052261995251562,-7.7488160265371e-05,-3.0807844259003e-06,4.4145582802612e-06,-1.333773854361e-06,-16.203729236087998,77.71453038076,3.5612945867009,1.7423611111111,50400.0,1,1100.0,530.0,0.2,17.0
2517,54280800,628.25,-0.00044569456451177,0.0005232851089929599,-7.7590544481187e-05,-3.0926604167679e-06,4.432333147657701e-06,-1.3396727308898e-06,-16.203048232012,77.79551355065401,3.5692830546122,1.7451388888889,50400.0,1,1100.0,530.0,0.2,17.0
2521,54367200,629.25,-0.00044625711900999005,0.00052395001844996,-7.769289943997099e-05,-3.1045672416362005e-06,4.4501566497185e-06,-1.3455894080823e-06,-16.202367076488,77.876466694356,3.5772715798235,1.7479166666666999,50400.0,1,1100.0,530.0,0.2,17.0
2525,54453600,630.25,-0.00044681946312222996,0.00052461468944189,-7.7795226319656e-05,-3.1165048962286e-06,4.468028775809901e-06,-1.3515238795813998e-06,-16.201686516403,77.957378920398,3.5852556470163,1.7506944444443997,50400.0,1,1100.0,530.0,0.2,17.0
2529,54540000,631.25,-0.00044738159170595995,0.00052527911624263,-7.789752453666999e-05,-3.1284734105928e-06,4.4859495775822e-06,-1.3574761669893e-06,-16.201004652173,78.03829160512801,3.5932476179636,1.7534722222222001,50400.0,1,1100.0,530.0,0.2,17.0
2533,54626400,632.25,-0.00044794350762795,0.00052594329913298,-7.7999791505027e-05,-3.1404729266727996e-06,4.5039192936917e-06,-1.3634463670189e-06,-16.200327078788,78.119097902563,3.601219274553,1.75625,50400.0,1,1100.0,530.0,0.2,17.0
2537,54712800,633.25,-0.00044850521263632004,0.00052660724407047,-7.8102031434149e-05,-3.1525034526344e-06,4.5219379338233e-06,-1.3694344811889e-06,-16.199645886771,78.199901762867,3.6091976054775,1.7590277777778,50400.0,1,1100.0,530.0,0.2,17.0
2541,54799200,634.25,-0.00044906670478662996,0.0005272709454824,-7.8204240695766e-05,-3.1645649968817e-06,4.540005518628501e-06,-1.3754405217467e-06,-16.198965047323,78.280772818869,3.6171989603028,1.7618055555556003,50400.0,1,1100.0,530.0,0.2,17.0
2545,54885600,635.25,-0.00044962798319194005,0.0005279344055027,-7.830642231076601e-05,-3.1766575697782002e-06,4.558122061939e-06,-1.3814644921608e-06,-16.198286069126,78.361414290382,3.6251516264148,1.7645833333333,50400.0,1,1100.0,530.0,0.2,17.0
2549,54972000,636.25,-0.00045018905053132997,0.00052859762544876,-7.8408574917425e-05,-3.1887812736192e-06,4.5762877344405e-06,-1.3875064608213998e-06,-16.197606239299,78.44211066746101,3.6331236863518,1.7673611111111,50400.0,1,1100.0,530.0,0.2,17.0
2553,55058400,637.25,-0.00045074990578087003,0.00052926060400656,-7.851069822569e-05,-3.2009361166256e-06,4.5945025525309005e-06,-1.3935664359053001e-06,-16.196927422442,78.52276455782099,3.6410915568894,1.7701388888889,50400.0,1,1100.0,530.0,0.2,17.0
2557,55144800,638.25,-0.00045131054768847,0.0005299233400891599,-7.8612792400691e-05,-3.2131221121089e-06,4.612766537559599e-06,-1.3996444254507e-06,-16.196251646733,78.603355940081,3.6490514018824,1.7729166666667,50400.0,1,1100.0,530.0,0.2,17.0
2561,55231200,639.25,-0.00045187097471785997,0.0005305858320402401,-7.8714857322376e-05,-3.2253393350339e-06,4.6310798161482e-06,-1.4057404811143e-06,-16.195572275694,78.68399413081801,3.6570290718795,1.7756944444443998,50400.0,1,1100.0,530.0,0.2,17.0
2565,55317600,640.25,-0.00045243119556534006,0.0005312480893506401,-7.8816893785304e-05,-3.2375878013293e-06,4.649442411026401e-06,-1.4118546096972e-06,-16.19489193465,78.764739561042,3.6650399491514,1.7784722222222,50400.0,1,1100.0,530.0,0.2,17.0
2569,55404000,641.25,-0.00045299120125147997,0.0005319101024356401,-7.8918901184162e-05,-3.2498675853517004e-06,4.6678544519775004e-06,-1.4179868666257e-06,-16.194215630999,78.845052491885,3.6729533034300004,1.78125,50400.0,1,1100.0,530.0,0.2,17.0
2573,55490400,642.25,-0.00045355099892238,0.00053257187752967,-7.902087860729201e-05,-3.2621787795495e-06,4.6863160927679004e-06,-1.4241373132183e-06,-16.193537557349,78.925547284143,3.6809158510085,1.7840277777778,50400.0,1,1100.0,530.0,0.2,17.0
2577,55576800,643.25,-0.00045411058665384006,0.00053323341364398,-7.9122826990148e-05,-3.2745213327212003e-06,4.7048272479512e-06,-1.4303059152301002e-06,-16.192860735165,79.006001575953,3.6888755606366,1.7868055555556002,50400.0,1,1100.0,530.0,0.2,17.0
2581,55663200,644.25,-0.00045466996212655995,0.0005338947093373901,-7.9224747210827e-05,-3.2868953524121e-06,4.7233880951308e-06,-1.4364927427187001e-06,-16.192185957046,79.08639795358499,3.6968265671695,1.7895833333333,50400.0,1,1100.0,530.0,0.2,17.0
2585,55749600,645.25,-0.00045522912729839007,0.00053455576575572,-7.9326638457323e-05,-3.2993008209212003e-06,4.7419986082823e-06,-1.4426977873611e-06,-16.191505482045,79.16679203944899,3.7047864577786,1.7923611111111,50400.0,1,1100.0,530.0,0.2,17.0
2589,55836000,646.25,-0.00045578808085885997,0.0005352165820140401,-7.9428501155179e-05,-3.3117377208576e-06,4.7606587550252e-06,-1.4489210341676002e-06,-16.190830753681,79.247142423835,3.7127409036163996,1.7951388888889,50400.0,1,1100.0,530.0,0.2,17.0
2593,55922400,647.25,-0.0004563468245668,0.00053587715793273,-7.9530333365933e-05,-3.3242062527097e-06,4.7793688758954004e-06,-1.4551626231857e-06,-16.190155117612,79.327455548177,3.7206930848402,1.7979166666667,50400.0,1,1100.0,530.0,0.2,17.0
2597,56008800,648.25,-0.00045690535912135995,0.00053653749608227,-7.963213696090999e-05,-3.3367063618445e-06,4.798128877587e-06,-1.4614225157425e-06,-16.189478791069,79.40769872540399,3.7286353049803003,1.8006944444443997,50400.0,1,1100.0,530.0,0.2,17.0
2601,56095200,649.25,-0.00045746368220899006,0.00053719759312627,-7.9733910917277e-05,-3.3492381086311e-06,4.8169388612445e-06,-1.4677007526133998e-06,-16.188806403894,79.48793756651101,3.7365807101805,1.8034722222222,50400.0,1,1100.0,530.0,0.2,17.0
2605,56181600,650.25,-0.00045802179754389006,0.00053785745340416,-7.9835655860272e-05,-3.3618015100181e-06,4.83579885522e-06,-1.4739973452018998e-06,-16.188130652389997,79.568151470548,3.7445291908468996,1.80625,50400.0,1,1100.0,530.0,0.2,17.0
2609,56268000,651.25,-0.00045857970268125994,0.00053851707477526,-7.9937372094005e-05,-3.374396618099e-06,4.8547089479827e-06,-1.4803123298837e-06,-16.187456172004,79.648285030029,3.7524644831144,1.8090277777777999,50400.0,1,1100.0,530.0,0.2,17.0
2613,56354400,652.25,-0.00045913739802470996,0.00053917645699569,-8.0039058970974e-05,-3.3870234020186e-06,4.873669086590901e-06,-1.4866456845723e-06,-16.186779375613998,79.728569400912,3.7604420075417,1.8118055555556003,50400.0,1,1100.0,530.0,0.2,17.0
2617,56440800,653.25,-0.00045969488199191,0.00053983559811175,-8.0140716119842e-05,-3.3996819395970003e-06,4.8926794026655e-06,-1.4929974630686e-06,-16.186108160074998,79.808527173239,3.7683479062411,1.8145833333333001,50400.0,1,1100.0,530.0,0.2,17.0
2621,56527200,654.25,-0.00046025215844344003,0.00054049450288145,-8.0242344438013e-05,-3.4123723141150003e-06,4.911740035613901e-06,-1.4993677214988998e-06,-16.185432571321,79.888585802778,3.776285098257,1.8173611111111,50400.0,1,1100.0,530.0,0.2,17.0
2625,56613600,655.25,-0.00046080922455685994,0.0005411531684637599,-8.0343943906898e-05,-3.4250945762087003e-06,4.930851071379701e-06,-1.505756495171e-06,-16.184761257382,79.968674287105,3.7842348543131,1.8201388888889,50400.0,1,1100.0,530.0,0.2,17.0
2629,56700000,656.25,-0.00046136608187865994,0.00054181159508537,-8.044551320670999e-05,-3.4378487249193e-06,4.9500125092527e-06,-1.5121637843334e-06,-16.184087262121,80.04857452188699,3.7921475572501,1.8229166666667,50400.0,1,1100.0,530.0,0.2,17.0
2633,56786400,657.25,-0.0004619227318821,0.0005424697865744901,-8.054705469239399e-05,-3.4506348836351e-06,4.9692245504198e-06,-1.5185896667847e-06,-16.18341455332,80.128531269924,3.8000781985813,1.8256944444443999,50400.0,1,1100.0,530.0,0.2,17.0
2637,56872800,658.25,-0.00046247917470366,0.00054312774087979,-8.064856617613101e-05,-3.4634530244047003e-06,4.988487153523599e-06,-1.5250341291189e-06,-16.182739883998998,80.20854644653599,3.8080315978439,1.8284722222222,50400.0,1,1100.0,530.0,0.2,17.0
2641,56959200,659.25,-0.00046303540689474006,0.00054378545574245,-8.0750048847702e-05,-3.4763031534528e-06,5.0078003265372004e-06,-1.5314971730844e-06,-16.182069293002,80.288338747187,3.8159367079399003,1.83125,50400.0,1,1100.0,530.0,0.2,17.0
2645,57045600,660.25,-0.00046359143628762003,0.0005444429382056,-8.085150191797801e-05,-3.4891853857643996e-06,5.0271642639655e-06,-1.5379788782011002e-06,-16.1813954862,80.36840164201399,3.8239145365279,1.8340277777778,50400.0,1,1100.0,530.0,0.2,17.0
2649,57132000,661.25,-0.00046414725643989003,0.00054510018212604,-8.0952925686156e-05,-3.5020996774632003e-06,5.0465788930318e-06,-1.5444792155687001e-06,-16.180719090455,80.448441691531,3.8318932539698,1.8368055555556002,50400.0,1,1100.0,530.0,0.2,17.0
2653,57218400,662.25,-0.00046470287252415,0.00054575719334821,-8.1054320824062e-05,-3.5150461115547006e-06,5.066044349988599e-06,-1.5509982384338998e-06,-16.18004695889,80.528335215369,3.8398424523877,1.8395833333333,50400.0,1,1100.0,530.0,0.2,17.0
2657,57304800,663.25,-0.0004652582772623,0.0005464139632652,-8.115568600290301e-05,-3.528024744058e-06,5.0855607340435995e-06,-1.5575359899856e-06,-16.179382224295,80.607669119264,3.8476625118729,1.8423611111111,50400.0,1,1100.0,530.0,0.2,17.0
2661,57391200,664.25,-0.00046581347544196,0.0005470704983570901,-8.1257022915131e-05,-3.5410355578932998e-06,5.1051280129894006e-06,-1.5640924550961e-06,-16.178707682251,80.687426616086,3.8555933192195,1.8451388888889,50400.0,1,1100.0,530.0,0.2,17.0
2665,57477600,665.25,-0.00046636846550825997,0.00054772679510593,-8.1358329597662e-05,-3.5540786357367998e-06,5.1247463286239005e-06,-1.5706676928871001e-06,-16.178039711471,80.76693181756501,3.8634679639423997,1.8479166666667,50400.0,1,1100.0,530.0,0.2,17.0
2669,57564000,666.25,-0.00046692324689857,0.00054838285443974,-8.1459607541175e-05,-3.5671539756724e-06,5.1444156737356e-06,-1.5772616980632e-06,-16.177370734481002,80.846447784242,3.8713532688198,1.8506944444443998,50400.0,1,1100.0,530.0,0.2,17.0
2673,57650400,667.25,-0.00046747816091454006,0.00054903907996791,-8.156091905337e-05,-3.5802628516558e-06,5.164137856923e-06,-1.5838750052672e-06,-16.173734905226,80.975597644727,3.8977452647841,1.8534722222222,50400.0,1,1100.0,530.0,0.2,17.0
2677,57736800,668.25,-0.00046803252017589005,0.0005496946549312,-8.1662134755315e-05,-3.5934028768908995e-06,5.183909538538e-06,-1.5905066616471001e-06,-16.176029839707,81.00588510265099,3.8872406729371,1.85625,50400.0,1,1100.0,530.0,0.2,17.0
2681,57823200,669.25,-0.00046858667644899003,0.00055034999908609,-8.176332263709599e-05,-3.6065753717632004e-06,5.203732599206e-06,-1.5971572274428999e-06,-16.175360512218003,81.085186843387,3.8950936301218997,1.8590277777778,50400.0,1,1100.0,530.0,0.2,17.0
2685,57909600,670.25,-0.00046914063153373,0.00055100511342641,-8.1864481892682e-05,-3.6197803701856004e-06,5.223607093296799e-06,-1.6038267231112e-06,-16.174687944520002,81.165043610829,3.9030875661902003,1.8618055555556001,50400.0,1,1100.0,530.0,0.2,17.0
2689,57996000,671.25,-0.00046969437499032004,0.00055165998609638,-8.196561110605899e-05,-3.6330177406621004e-06,5.2435328061289e-06,-1.6105150654668998e-06,-16.174022384862003,81.244109063845,3.9108959610919,1.8645833333333,50400.0,1,1100.0,530.0,0.2,17.0
2693,58082400,672.25,-0.00047024791644119005,0.00055231462873289,-8.2066712291708e-05,-3.6462876682945e-06,5.2635100448319e-06,-1.6172223765375e-06,-16.173352503705,81.323565117439,3.9188068775351,1.8673611111111,50400.0,1,1100.0,530.0,0.2,17.0
2697,58168800,673.25,-0.00047080125221584003,0.00055296903583888,-8.2167783623034e-05,-3.6595901705547996e-06,5.2835388411432e-06,-1.6239486705883999e-06,-16.172686182987,81.402954312676,3.9267061041627995,1.8701388888889,50400.0,1,1100.0,530.0,0.2,17.0
2701,58255200,674.25,-0.00047135438514470996,0.00055362321108718,-8.226882594246501e-05,-3.6729253831826003e-06,5.3036194172333e-06,-1.6306940340507e-06,-16.172013869072998,81.482662053892,3.9346901354595,1.8729166666666999,50400.0,1,1100.0,530.0,0.2,17.0
2705,58341600,675.25,-0.00047190731030045,0.00055427714833262,-8.2369838032164e-05,-3.6862931536565003e-06,5.3237515270460995e-06,-1.6374583733896e-06,-16.171349780585,81.56158588418499,3.9424912220182997,1.8756944444443997,50400.0,1,1100.0,530.0,0.2,17.0
2709,58428000,676.25,-0.00047246003098645994,0.0005549308519861599,-8.2470820999701e-05,-3.6996935917434e-06,5.3439353499778e-06,-1.6442417582345e-06,-16.170683729255,81.640868734313,3.9503856592325004,1.8784722222222001,50400.0,1,1100.0,530.0,0.2,17.0
2713,58514400,677.25,-0.00047301254697258,0.00055558432136592,-8.257177439334e-05,-3.7131268159532996e-06,5.3641710855052e-06,-1.6510442695519e-06,-16.170015195410002,81.72019832959501,3.9582970606987,1.88125,50400.0,1,1100.0,530.0,0.2,17.0
2717,58600800,678.25,-0.00047356485592737997,0.00055623755486717,-8.2672698939791e-05,-3.7265927779981004e-06,5.3844586490475e-06,-1.6578658710494e-06,-16.169350271842,81.79932265222901,3.9661667902521,1.8840277777778,50400.0,1,1100.0,530.0,0.2,17.0
2721,58687200,679.25,-0.00047411696337022996,0.00055689055638518,-8.277359301494699e-05,-3.7400915358514e-06,5.4047981447759e-06,-1.6647066089245e-06,-16.168684914963,81.878483587007,3.9740496387246003,1.8868055555556003,50400.0,1,1100.0,530.0,0.2,17.0
2725,58773600,680.25,-0.00047466886173803,0.00055754331983245,-8.2874458094412e-05,-3.7536231735225e-06,5.4251897132452995e-06,-1.6715665397228e-06,-16.168016184198,81.957638607327,3.9819414195476,1.8895833333333,50400.0,1,1100.0,530.0,0.2,17.0
2729,58860000,681.25,-0.00047522055997399,0.00055819585371371,-8.2975293739713e-05,-3.767187640439e-06,5.4456332609455005e-06,-1.6784456205065e-06,-16.167349883493,82.036728686185,3.9898221193716004,1.8923611111111,50400.0,1,1100.0,530.0,0.2,17.0
2733,58946400,682.25,-0.0004757720529847,0.0005588481541128701,-8.3076101128176e-05,-3.7807850630702004e-06,5.4661290060073e-06,-1.6853439429371e-06,-16.166685093973,82.11580012197099,3.9977052697941,1.8951388888889,50400.0,1,1100.0,530.0,0.2,17.0
2737,59032800,683.25,-0.00047632334376965,0.00055950022150483,-8.3176877735178e-05,-3.7944154704722e-06,5.486676997260201e-06,-1.692261526788e-06,-16.166019245639998,82.194807705263,4.0055788658556,1.8979166666667,50400.0,1,1100.0,530.0,0.2,17.0
2741,59119200,684.25,-0.00047687443069058,0.00056015205571123,-8.3277625020653e-05,-3.8080789015193003e-06,5.5072773032005e-06,-1.6991984016812e-06,-16.165355574113,82.273786448486,4.0134519479671,1.9006944444443998,50400.0,1,1100.0,530.0,0.2,17.0
2745,59205600,685.25,-0.00047742531529868,0.00056080365801331,-8.3378342714627e-05,-3.821775340061e-06,5.5279298928435e-06,-1.7061545527825e-06,-16.164688365453,82.353097988812,4.021413057494899,1.9034722222222,50400.0,1,1100.0,530.0,0.2,17.0
2749,59292000,686.25,-0.00047797599688083,0.00056145502861894,-8.3479031738112e-05,-3.8355048577077e-06,5.5486348862295e-06,-1.7131300285219e-06,-16.164022668588,82.43211730879001,4.0293103029329,1.90625,50400.0,1,1100.0,530.0,0.2,17.0
2753,59378400,687.25,-0.00047852647419577,0.00056210616578984,-8.357969159407299e-05,-3.8492675214894995e-06,5.5693923937931e-06,-1.7201248723036e-06,-16.163359754523,82.510767988501,4.0371244723771,1.9090277777778,50400.0,1,1100.0,530.0,0.2,17.0
2757,59464800,688.25,-0.0004790767530353,0.00056275707508336,-8.3680322048061e-05,-3.8630633591496005e-06,5.590202466404e-06,-1.7271391072543998e-06,-16.162688176388,82.590184478956,4.0451322348408,1.9118055555556002,50400.0,1,1100.0,530.0,0.2,17.0
2761,59551200,689.25,-0.00047962682269499,0.00056340774497954,-8.3780922284549e-05,-3.8768922843178005e-06,5.6110649612440994e-06,-1.7341726769263e-06,-16.16203443457,82.668443989211,4.0528624829774,1.9145833333333,50400.0,1,1100.0,530.0,0.2,17.0
2765,59637600,690.25,-0.00048017669225147003,0.00056405818524406,-8.3881492992589e-05,-3.8907545291377e-06,5.6319802649762e-06,-1.7412257358383998e-06,-16.161368932114,82.747173239303,4.0607155095006,1.9173611111111,50400.0,1,1100.0,530.0,0.2,17.0
2769,59724000,691.25,-0.00048072635556382004,0.0005647083901603,-8.3982034596482e-05,-3.9046499887498e-06,5.6529482034779e-06,-1.7482982147281001e-06,-16.160707749802,82.825767233714,4.0685417139023,1.9201388888889,50400.0,1,1100.0,530.0,0.2,17.0
2773,59810400,692.25,-0.00048127582063465,0.00056535836861852,-8.4082547983865e-05,-3.9185787199621e-06,5.6739688666405e-06,-1.7553901466784001e-06,-16.160039605509,82.90509760899499,4.0765537017377005,1.9229166666667,50400.0,1,1100.0,530.0,0.2,17.0
2777,59896800,693.25,-0.0004818250816701,0.00056600811103021,-8.4183029360117e-05,-3.9325408566532005e-06,5.695042487471599e-06,-1.7625016308185e-06,-16.159381121105,82.983184190273,4.084271105899,1.9256944444443997,50400.0,1,1100.0,530.0,0.2,17.0
2781,59983200,694.25,-0.00048237414170995,0.0005666576251464401,-8.4283483436492e-05,-3.9465364035989e-06,5.7161690630917e-06,-1.7696326594928001e-06,-16.158714083097,83.062300122683,4.0922444943882,1.9284722222222,50400.0,1,1100.0,530.0,0.2,17.0
2785,60069600,695.25,-0.00048292330309221,0.0005673072665441,-8.438396345188299e-05,-3.960566520702299e-06,5.737350224286401e-06,-1.776783703584e-06,-16.155098905278003,83.186059137207,4.117709419053599,1.93125,50400.0,1,1100.0,530.0,0.2,17.0
2789,60156000,696.25,-0.00048347197031682,0.00056795633007188,-8.448435975505401e-05,-3.974628954875e-06,5.7585828236678e-06,-1.7839538687928001e-06,-16.157398799719,83.219021977513,4.1078446756838,1.9340277777777999,50400.0,1,1100.0,530.0,0.2,17.0
2793,60242400,697.25,-0.0004840204264154,0.00056860515083865,-8.4584724423246e-05,-3.9887248557746e-06,5.779868489934299e-06,-1.7911436341597e-06,-16.156728756729997,83.298245330051,4.1158640582001,1.9368055555556003,50400.0,1,1100.0,530.0,0.2,17.0
2797,60328800,698.25,-0.00048456867565055997,0.0005692537344678599,-8.4685058817298e-05,-4.0028543702984e-06,5.801207463821499e-06,-1.7983530935231002e-06,-16.156076062895,83.376094727446,4.1235559381597,1.9395833333333001,50400.0,1,1100.0,530.0,0.2,17.0
2801,60415200,699.25,-0.00048511672745999004,0.00056990209051118,-8.478536305119101e-05,-4.017017446322e-06,5.8225996527178e-06,-1.8055822063958e-06,-16.155412065495,83.454765718724,4.1314552494701,1.9423611111111,50400.0,1,1100.0,530.0,0.2,17.0
2805,60501600,700.25,-0.0004856645789197,0.00057055021836185,-8.488563944215e-05,-4.031214119484299e-06,5.8440451152797e-06,-1.8128309957953999e-06,-16.154747191857,83.533617105525,4.139404559412,1.9451388888889,50400.0,1,1100.0,530.0,0.2,17.0
2809,60588000,701.25,-0.00048621222831880996,0.00057119811400777,-8.498588568895799e-05,-4.0454444539985e-06,5.8655439632605e-06,-1.820099509262e-06,-16.154087557527,83.612011027285,4.1472482963735,1.9479166666667,50400.0,1,1100.0,530.0,0.2,17.0
2813,60674400,702.25,-0.00048675968049038,0.00057184578348458,-8.508610299420501e-05,-4.0597084930275e-06,5.8870962654077e-06,-1.8273877723801998e-06,-16.15342501927,83.690523081691,4.1551280461119,1.9506944444443999,50400.0,1,1100.0,530.0,0.2,17.0
2817,60760800,703.25,-0.00048730693021752,0.00057249322162597,-8.5186291408454e-05,-4.074006278715701e-06,5.908702092164701e-06,-1.8346958134490002e-06,-16.152767918182,83.768704921552,4.162934374029899,1.9534722222222,50400.0,1,1100.0,530.0,0.2,17.0
2821,60847200,704.25,-0.00048785397709425995,0.0005731404254549799,-8.5286448360726e-05,-4.0883378305332e-06,5.9303614830396e-06,-1.8420236525064998e-06,-16.152113512033,83.846616168885,4.1706814538799,1.95625,50400.0,1,1100.0,530.0,0.2,17.0
2825,60933600,705.25,-0.0004884008243487701,0.0005737874000767,-8.538657572793299e-05,-4.1027031728848e-06,5.952074476625499e-06,-1.8493713037408e-06,-16.151452635252,83.924940525746,4.1785357372359995,1.9590277777778,50400.0,1,1100.0,530.0,0.2,17.0
2829,61020000,706.25,-0.0004889474701859901,0.00057443414353269,-8.54866733467e-05,-4.1171023891825e-06,5.9738412122229e-06,-1.8567388230404e-06,-16.150798385099,84.00287244555899,4.1863014048192,1.9618055555556002,50400.0,1,1100.0,530.0,0.2,17.0
2833,61106400,707.25,-0.00048949392148537,0.0005750806645469599,-8.5586743061588e-05,-4.1315355068365e-06,5.9956617271603e-06,-1.8641262203237998e-06,-16.150131016856,84.081798522422,4.1943154233263,1.9645833333333,50400.0,1,1100.0,530.0,0.2,17.0
2837,61192800,708.25,-0.00049004017103621,0.00057572695350634,-8.5686782470136e-05,-4.146002552041e-06,6.0175360788367e-06,-1.8715335267956001e-06,-16.149475571176,84.15961972859999,4.2020673988962,1.9673611111111,50400.0,1,1100.0,530.0,0.2,17.0
2841,61279200,709.25,-0.00049058622237018,0.00057637301592911,-8.578679355892701e-05,-4.1605035457120005e-06,6.0394642908126995e-06,-1.8789607451007e-06,-16.148816796664,84.238034854498,4.2099690382645,1.9701388888889,50400.0,1,1100.0,530.0,0.2,17.0
2845,61365600,710.25,-0.0004911320688142799,0.00057701884278714,-8.5886773972864e-05,-4.1750385219021e-06,6.061446433869099e-06,-1.8864079119669998e-06,-16.148165402244,84.315407414115,4.2176254544607,1.9729166666667,50400.0,1,1100.0,530.0,0.2,17.0
2849,61452000,711.25,-0.00049167771765384,0.0005776644419863099,-8.5986724332467e-05,-4.1896076037113995e-06,6.0834827074493e-06,-1.893875103738e-06,-16.147506933557,84.393471082896,4.2254565857534,1.9756944444443998,50400.0,1,1100.0,530.0,0.2,17.0
2853,61538400,712.25,-0.00049222316826976,0.00057830981375874,-8.6086645488975e-05,-4.2042107288972996e-06,6.1055730076729e-06,-1.9013622787757e-06,-16.146850238295,84.471733559109,4.2333409980071,1.9784722222222,50400.0,1,1100.0,530.0,0.2,17.0
2857,61624800,713.25,-0.00049276842338075,0.00057895496175917,-8.618653837841801e-05,-4.2188479915807e-06,6.1277174878976e-06,-1.9088694963169e-06,-16.146189315039,84.550173455248,4.2412761838699,1.98125,50400.0,1,1100.0,530.0,0.2,17.0
2861,61711200,714.25,-0.00049331347914419,0.00057959987983491,-8.628640069071899e-05,-4.2335193740638e-06,6.1499161250499e-06,-1.9163967509861e-06,-16.145532132277,84.62802094024299,4.249074892794701,1.9840277777778,50400.0,1,1100.0,530.0,0.2,17.0
2865,61797600,715.25,-0.00049385833730679,0.00058024457188891,-8.6386234582119e-05,-4.2482249668746e-06,6.1721690674970005e-06,-1.9239441006223e-06,-16.144877278915,84.706021671102,4.2569157156485,1.9868055555556001,50400.0,1,1100.0,530.0,0.2,17.0
2869,61884000,716.25,-0.0004944029966399099,0.00058088903372394,-8.6486037084023e-05,-4.262964835134101e-06,6.1944764283244e-06,-1.9315115931903e-06,-16.144221886046,84.78360994455599,4.2646666327248,1.9895833333333,50400.0,1,1100.0,530.0,0.2,17.0
2873,61970400,717.25,-0.00049494745564028,0.00058153326608411,-8.658581044383499e-05,-4.2777389213791e-06,6.2168381056939e-06,-1.9390991843148e-06,-16.143569344806,84.861313154966,4.2724476116977,1.9923611111111,50400.0,1,1100.0,530.0,0.2,17.0
2877,62056800,718.25,-0.0004954917183011401,0.00058217727254937,-8.668555424823001e-05,-4.2925473323873e-06,6.239254283349e-06,-1.9467069509617e-06,-16.142909978311998,84.93938591111,4.2803283750664,1.9951388888889,50400.0,1,1100.0,530.0,0.2,17.0
2881,62143200,719.25,-0.0004960357787430299,0.00058282104702099,-8.6785268277959e-05,-4.3073900974205e-06,6.2617250117702e-06,-1.9543349143497e-06,-16.142261861955,85.01662731019499,4.2880111774227,1.9979166666666999,50400.0,1,1100.0,530.0,0.2,17.0
2885,62229600,720.25,-0.0004965796429969201,0.00058346459489689,-8.6884951899966e-05,-4.322267283238299e-06,6.284250399118799e-06,-1.9619831158805e-06,-16.141606137245,85.09431413766501,4.2958099438988,2.0006944444443997,50400.0,1,1100.0,530.0,0.2,17.0
2889,62316000,721.25,-0.0004971233115883,0.00058410791928505,-8.6984607696751e-05,-4.337178874601e-06,6.3068304174149005e-06,-1.9696515428139e-06,-16.140950602076,85.17244163738499,4.3037220678905,2.0034722222222,50400.0,1,1100.0,530.0,0.2,17.0
2893,62402400,722.25,-0.0004976667804323,0.00058475101342504,-8.708423299274e-05,-4.3521249048234e-06,6.3294651339344e-06,-1.977340229111e-06,-16.140298008669,85.249722805882,4.3114370627281,2.00625,50400.0,1,1100.0,530.0,0.2,17.0
2897,62488800,723.25,-0.00049821005660713,0.00058539388554803,-8.7183828940904e-05,-4.3671054638667e-06,6.3521546892902996e-06,-1.9850492254236e-06,-16.13964060141,85.327818638737,4.3193540404606,2.0090277777778,50400.0,1,1100.0,530.0,0.2,17.0
2901,62575200,724.25,-0.00049875313165112,0.00058603652656218,-8.7283394911064e-05,-4.3821205616878995e-06,6.3748991055833e-06,-1.9927785438954e-06,-16.138992311033,85.404967786694,4.3270495081327,2.0118055555556,50400.0,1,1100.0,530.0,0.2,17.0
2904,62596800,724.5,-0.00049875313165112,0.00058603652656218,-8.7283394911064e-05,-4.3821205616878995e-06,6.3748991055833e-06,-1.9927785438954e-06,0.7545151287329499,106.44181938393,46.209708874023,2.0125,90000.0,3,25.0,25.0,0.1,0.1
2908,62697600,725.66666666667,-0.00049878963263718,0.00058607941354355,-8.728978090637099e-05,-4.3830695160584e-06,6.3763194785181e-06,-1.9932499624597e-06,-16.138957022606,85.412069818874,4.3280634678316,2.0157407407407,50400.0,1,1100.0,530.0,0.2,17.0
2912,62784000,726.66666666667,-0.0004993324693636599,0.0005867217811814599,-8.73893118178e-05,-4.3981213759418e-06,6.3991222954004996e-06,-2.0010009194586e-06,-16.138291997118,85.488075790086,4.3354555305471,2.0185185185185,50400.0,1,1100.0,530.0,0.2,17.0
